Pt O H
      1.000000000000
     11.242998123169        0.000000000000        0.000000000000
      0.000000000000        9.736721992493        0.000000000000
      0.000000000000        0.000000000000       41.097667694092
 112  100  200
Selected dynamics
Direct  
      0.000000000000       0.000000000000       0.000000000000   T T T
      0.250000000000       0.000000000000       0.000000000000   T T T
      0.500000000000       0.000000000000       0.000000000000   T T T
      0.749999940395       0.000000000000       0.000000000000   T T T
      0.125000000000       0.250000000000       0.000000000000   T T T
      0.374999970198       0.250000000000       0.000000000000   T T T
      0.625000000000       0.250000000000       0.000000000000   T T T
      0.874999940395       0.250000000000       0.000000000000   T T T
      0.000000000000       0.500000000000       0.000000000000   T T T
      0.250000000000       0.500000000000       0.000000000000   T T T
      0.500000000000       0.500000000000       0.000000000000   T T T
      0.749999940395       0.500000000000       0.000000000000   T T T
      0.125000000000       0.750000000000       0.000000000000   T T T
      0.374999970198       0.750000000000       0.000000000000   T T T
      0.625000000000       0.750000000000       0.000000000000   T T T
      0.874999940395       0.750000000000       0.000000000000   T T T
      0.125000000000       0.083333335817       0.055841792375   T T T
      0.374999970198       0.083333335817       0.055841792375   T T T
      0.625000000000       0.083333335817       0.055841792375   T T T
      0.874999940395       0.083333335817       0.055841792375   T T T
      0.000000000000       0.333333343267       0.055841792375   T T T
      0.250000000000       0.333333343267       0.055841792375   T T T
      0.500000000000       0.333333343267       0.055841792375   T T T
      0.749999940395       0.333333343267       0.055841792375   T T T
      0.125000000000       0.583333313465       0.055841792375   T T T
      0.374999970198       0.583333313465       0.055841792375   T T T
      0.625000000000       0.583333313465       0.055841792375   T T T
      0.874999940395       0.583333313465       0.055841792375   T T T
      0.000000000000       0.833333313465       0.055841792375   T T T
      0.250000000000       0.833333313465       0.055841792375   T T T
      0.500000000000       0.833333313465       0.055841792375   T T T
      0.749999940395       0.833333313465       0.055841792375   T T T
      0.000000000000       0.166666671634       0.111683584750   T T F
      0.250000000000       0.166666671634       0.111683584750   T T F
      0.500000000000       0.166666671634       0.111683584750   T T F
      0.749999940395       0.166666671634       0.111683584750   T T F
      0.125000000000       0.416666656733       0.111683584750   T T F
      0.374999970198       0.416666656733       0.111683584750   T T F
      0.625000000000       0.416666656733       0.111683584750   T T F
      0.874999940395       0.416666656733       0.111683584750   T T F
      0.000000000000       0.666666686535       0.111683584750   T T F
      0.250000000000       0.666666686535       0.111683584750   T T F
      0.500000000000       0.666666686535       0.111683584750   T T F
      0.749999940395       0.666666686535       0.111683584750   T T F
      0.125000000000       0.916666626930       0.111683584750   T T F
      0.374999970198       0.916666626930       0.111683584750   T T F
      0.625000000000       0.916666626930       0.111683584750   T T F
      0.874999940395       0.916666626930       0.111683584750   T T F
      0.000000000000       0.000000000000       0.167525365949   T T F
      0.250000000000       0.000000000000       0.167525365949   T T F
      0.500000000000       0.000000000000       0.167525365949   T T F
      0.749999940395       0.000000000000       0.167525365949   T T F
      0.125000000000       0.250000000000       0.167525365949   T T F
      0.374999970198       0.250000000000       0.167525365949   T T F
      0.625000000000       0.250000000000       0.167525365949   T T F
      0.874999940395       0.250000000000       0.167525365949   T T F
      0.000000000000       0.500000000000       0.167525365949   T T F
      0.250000000000       0.500000000000       0.167525365949   T T F
      0.500000000000       0.500000000000       0.167525365949   T T F
      0.749999940395       0.500000000000       0.167525365949   T T F
      0.125000000000       0.750000000000       0.167525365949   T T F
      0.374999970198       0.750000000000       0.167525365949   T T F
      0.625000000000       0.750000000000       0.167525365949   T T F
      0.874999940395       0.750000000000       0.167525365949   T T F
      0.125000000000       0.083333335817       0.223367169499   T T F
      0.374999970198       0.083333335817       0.223367169499   T T F
      0.625000000000       0.083333335817       0.223367169499   T T F
      0.874999940395       0.083333335817       0.223367169499   T T F
      0.000000000000       0.333333343267       0.223367169499   T T F
      0.250000000000       0.333333343267       0.223367169499   T T F
      0.500000000000       0.333333343267       0.223367169499   T T F
      0.749999940395       0.333333343267       0.223367169499   T T F
      0.125000000000       0.583333313465       0.223367169499   T T F
      0.374999970198       0.583333313465       0.223367169499   T T F
      0.625000000000       0.583333313465       0.223367169499   T T F
      0.874999940395       0.583333313465       0.223367169499   T T F
      0.000000000000       0.833333313465       0.223367169499   T T F
      0.250000000000       0.833333313465       0.223367169499   T T F
      0.500000000000       0.833333313465       0.223367169499   T T F
      0.749999940395       0.833333313465       0.223367169499   T T F  
      0.000000000000       0.166666671634       0.279208928347   T T T
      0.250000000000       0.166666671634       0.279208928347   T T T
      0.500000000000       0.166666671634       0.279208928347   T T T
      0.749999940395       0.166666671634       0.279208928347   T T T
      0.125000000000       0.416666656733       0.279208928347   T T T
      0.374999970198       0.416666656733       0.279208928347   T T T
      0.625000000000       0.416666656733       0.279208928347   T T T
      0.874999940395       0.416666656733       0.279208928347   T T T
      0.000000000000       0.666666686535       0.279208928347   T T T
      0.250000000000       0.666666686535       0.279208928347   T T T
      0.500000000000       0.666666686535       0.279208928347   T T T
      0.749999940395       0.666666686535       0.279208928347   T T T
      0.125000000000       0.916666626930       0.279208928347   T T T
      0.374999970198       0.916666626930       0.279208928347   T T T
      0.625000000000       0.916666626930       0.279208928347   T T T
      0.874999940395       0.916666626930       0.279208928347   T T T
      0.000000000000       0.000000000000       0.335050731897   T T T
      0.250000000000       0.000000000000       0.335050731897   T T T
      0.500000000000       0.000000000000       0.335050731897   T T T
      0.749999940395       0.000000000000       0.335050731897   T T T
      0.125000000000       0.250000000000       0.335050731897   T T T
      0.374999970198       0.250000000000       0.335050731897   T T T
      0.625000000000       0.250000000000       0.335050731897   T T T
      0.874999940395       0.250000000000       0.335050731897   T T T
      0.000000000000       0.500000000000       0.335050731897   T T T
      0.250000000000       0.500000000000       0.335050731897   T T T
      0.500000000000       0.500000000000       0.335050731897   T T T
      0.749999940395       0.500000000000       0.335050731897   T T T
      0.125000000000       0.750000000000       0.335050731897   T T T
      0.374999970198       0.750000000000       0.335050731897   T T T
      0.625000000000       0.750000000000       0.335050731897   T T T
      0.874999940395       0.750000000000       0.335050731897   T T T  
      0.073990762234       0.794579505920       0.638015806675   T T T
      0.800305783749       0.546069085598       0.404597043991   T T T
      0.241316944361       0.583643555641       0.384498715401   T T T
      0.796574592590       0.489992290735       0.521212756634   T T T
      0.196650385857       0.015445033088       0.904296278954   T T T
      0.604077100754       0.702488541603       0.787991404533   T T T
      0.090159848332       0.690948426723       0.835975348949   T T T
      0.530848622322       0.737525522709       0.899167180061   T T T
      0.312102526426       0.101178094745       0.515091121197   T T T
      0.792293488979       0.151068612933       0.808525681496   T T T
      0.770624697208       0.711368262768       0.715400695801   T T T
      0.326161473989       0.216738134623       0.803439795971   T T T
      0.399274915457       0.594834089279       0.619495511055   T T T
      0.073588997126       0.737062096596       0.405968397856   T T T
      0.049792766571       0.481992125511       0.547616422176   T T T
      0.822066724300       0.380422383547       0.855566620827   T T T
      0.822025835514       0.068916417658       0.753137469292   T T T
      0.554185092449       0.428159505129       0.715348899364   T T T
      0.064086817205       0.432933777571       0.775027275085   T T T
      0.480381309986       0.115298762918       0.886111736298   T T T
      0.355461239815       0.766429424286       0.573637008667   T T T
      0.116370469332       0.177799165249       0.950489759445   T T T
      0.548609435558       0.545946061611       0.531165361404   T T T
      0.468848228455       0.537313461304       0.388511329889   T T T
      0.644909501076       0.472263842821       0.800249934196   T T T
      0.783533215523       0.794546663761       0.505210518837   T T T
      0.270078659058       0.037195883691       0.831251025200   T T T
      0.010181892663       0.772295475006       0.469509661198   T T T
      0.043202176690       0.089896172285       0.434885859489   T T T
      0.425748080015       0.062183354050       0.946891367435   T T T
      0.608443915844       0.793987452984       0.554969668388   T T T
      0.219034716487       0.275724709034       0.566435277462   T T T
      0.815816223621       0.480904281139       0.748840510845   T T T
      0.738447785378       0.767278075218       0.435204982758   T T T
      0.598040759563       0.154488638043       0.755318522453   T T T
      0.051805488765       0.073654353619       0.764615833759   T T T
      0.784600019455       0.188581839204       0.492533266544   T T T
      0.000096504511       0.062822170556       0.383724361658   T T T
      0.365756720304       0.764391422272       0.682484447956   T T T
      0.733910381794       0.000054022286       0.443554461002   T T T
      0.070650018752       0.759887158871       0.692161262035   T T T
      0.335245728493       0.794108331203       0.732976615429   T T T
      0.067948691547       0.338588297367       0.862296342850   T T T
      0.084700629115       0.250172704458       0.611284971237   T T T
      0.821758627892       0.036358334124       0.896308779716   T T T
      0.425352215767       0.317355781794       0.391807943583   T T T
      0.086345829070       0.794494688511       0.547124922276   T T T
      0.738531172276       0.034674707800       0.560190260410   T T T
      0.024309884757       0.786302268505       0.777645528316   T T T
      0.200447157025       0.495330959558       0.887128651142   T T T
      0.260716229677       0.059833690524       0.742097258568   T T T
      0.082903154194       0.363677918911       0.673744916916   T T T
      0.506174683571       0.794464707375       0.385542660952   T T T
      0.784610688686       0.794528603554       0.651744484901   T T T
      0.000134928428       0.033980224282       0.863732755184   T T T
      0.147601023316       0.000011605549       0.540536046028   T T T
      0.000001245219       0.623911142349       0.920579552650   T T T
      0.387263506651       0.624257206917       0.823875367641   T T T
      0.573018670082       0.794542372227       0.951335370541   T T T
      0.303538799286       0.000028962519       0.403245955706   T T T
      0.375156939030       0.563180625439       0.878115296364   T T T
      0.814109027386       0.692808449268       0.584438741207   T T T
      0.821277022362       0.756585121155       0.885832726955   T T T
      0.812456786633       0.065733209252       0.621011555195   T T T
      0.011232057586       0.603665828705       0.729141533375   T T T
      0.480480372906       0.211722597480       0.574530363083   T T T
      0.481180101633       0.024192638695       0.689197480679   T T T
      0.077948071063       0.085359223187       0.647241473198   T T T
      0.676004707813       0.075961291790       0.930351376534   T T T
      0.523497998714       0.026735898107       0.483151584864   T T T
      0.345172435045       0.073291398585       0.626882433891   T T T
      0.741171300411       0.513914108276       0.666770160198   T T T
      0.748747527599       0.233682349324       0.405054420233   T T T
      0.689722239971       0.000880481151       0.692561745644   T T T
      0.049843374640       0.266233444214       0.815203607082   T T T
      0.699587762356       0.794593811035       0.384348541498   T T T
      0.018294764683       0.000018897530       0.587712228298   T T T
      0.753081023693       0.247741997242       0.669748902321   T T T
      0.809384524822       0.753680169582       0.816023409367   T T T
      0.031071694568       0.466976225376       0.461049765348   T T T
      0.329343914986       0.735547959805       0.458299845457   T T T
      0.163945779204       0.567960381508       0.670956194401   T T T
      0.026352223009       0.000124169106       0.928245544434   T T T
      0.330578714609       0.487132340670       0.760383665562   T T T
      0.349994808435       0.245055481791       0.461130797863   T T T
      0.570995986462       0.623480141163       0.650079488754   T T T
      0.725811839104       0.307253420353       0.602142691612   T T T
      0.209119036794       0.744874477386       0.950605213642   T T T
      0.775096476078       0.615308523178       0.950240135193   T T T
      0.611688077450       0.688473105431       0.736574053764   T T T
      0.136938557029       0.360953003168       0.404626369476   T T T
      0.214549168944       0.794573903084       0.779270291328   T T T
      0.302305489779       0.353700667620       0.629770040512   T T T
      0.751648783684       0.000001848672       0.384796351194   T T T
      0.054879043251       0.249759316444       0.506665706635   T T T
      0.010052656755       0.106697306037       0.696686029434   T T T
      0.566534638405       0.036894857883       0.540454208851   T T T
      0.627463579178       0.648708581924       0.860336542130   T T T
      0.354503393173       0.196216851473       0.704282045364   T T T
      0.801092088223       0.424145698547       0.459377378225   T T T
      0.139882251620       0.759161770344       0.623987615108   T T T
      0.000042248517       0.740388929844       0.633767485619   T T T
      0.822124540806       0.592410445213       0.383717358112   T T T
      0.822003424168       0.446600109339       0.403353422880   T T T
      0.257147222757       0.684706926346       0.384219378233   T T T
      0.153567850590       0.567144870758       0.383727133274   T T T
      0.822056889534       0.476001292467       0.544289648533   T T T
      0.775013208389       0.399435251951       0.511361777782   T T T
      0.284328162670       0.000022697577       0.902436316013   T T T
      0.178513944149       0.114558063447       0.900279939175   T T T
      0.515655696392       0.691414296627       0.788345873356   T T T
      0.625744462013       0.794456601143       0.797060310841   T T T
      0.003915770445       0.715462148190       0.834655761719   T T T
      0.108824528754       0.619136810303       0.819343984127   T T T
      0.604390919209       0.794550657272       0.896967828274   T T T
      0.465743720531       0.794450700283       0.908812165260   T T T
      0.387722462416       0.146100297570       0.507956683636   T T T
      0.315345883369       0.000913654512       0.509887695312   T T T
      0.812873005867       0.131600975990       0.831745505333   T T T
      0.710873901844       0.115001842380       0.803730368614   T T T
      0.821702301502       0.794560611248       0.718300342560   T T T
      0.822016358376       0.627633512020       0.714441597462   T T T
      0.398968309164       0.192486956716       0.816183626652   T T T
      0.337936371565       0.190599158406       0.780128717422   T T T
      0.462401032448       0.641415178776       0.606376349926   T T T
      0.365352928638       0.661280155182       0.635563910007   T T T
      0.000006048209       0.794384419918       0.407543718815   T T T
      0.144541338086       0.794470369816       0.411480635405   T T T
      0.003238282166       0.426437050104       0.563638031483   T T T
      0.000003913547       0.560292661190       0.539712071419   T T T
      0.798574864864       0.451311558485       0.839172720909   T T T
      0.753818035126       0.316607594490       0.859434366226   T T T
      0.811610758305       0.022505417466       0.731617510319   T T T
      0.811846613884       0.000160731710       0.770998954773   T T T
      0.569311678410       0.387005299330       0.693441331387   T T T
      0.467653572559       0.420547604561       0.720687627792   T T T
      0.026665486395       0.388209909201       0.755660891533   T T T
      0.000491950603       0.465657234192       0.790171563625   T T T
      0.475835174322       0.179412648082       0.905081629753   T T T
      0.476997137070       0.018289009109       0.894051790237   T T T
      0.316308885813       0.794581413269       0.594443798065   T T T
      0.304513007402       0.794590950012       0.554839313030   T T T
      0.162808537483       0.263952881098       0.946732282639   T T T
      0.171938300133       0.097665928304       0.951274335384   T T T
      0.608651638031       0.532357931137       0.513502776623   T T T
      0.565318405628       0.480749279261       0.549404025078   T T T
      0.423035800457       0.599897444248       0.403181433678   T T T
      0.551729381084       0.526673555374       0.396977931261   T T T
      0.556261301041       0.464202642441       0.799652159214   T T T
      0.680699408054       0.403788149357       0.784983038902   T T T
      0.822086513042       0.707946479321       0.512952744961   T T T
      0.722911298275       0.772091865540       0.488216608763   T T T
      0.245590984821       0.095262043178       0.850171983242   T T T
      0.197644516826       0.000069222478       0.820201098919   T T T
      0.000021702395       0.693146765232       0.484766691923   T T T
      0.096664257348       0.794547796249       0.467365264893   T T T
      0.000099172838       0.000089455156       0.434262156487   T T T
      0.130923092365       0.072952061892       0.434526324272   T T T
      0.351559251547       0.008674376644       0.951307773590   T T T
      0.496282935143       0.000033276086       0.948618948460   T T T
      0.607455551624       0.794577479362       0.579301476479   T T T
      0.524968624115       0.790287792683       0.546610832214   T T T
      0.141822770238       0.228848576546       0.561678886414   T T T
      0.284440129995       0.206149041653       0.566950917244   T T T
      0.789567708969       0.561512291431       0.762101590633   T T T
      0.747131705284       0.445569962263       0.735840857029   T T T
      0.682774901390       0.689913809299       0.440126240253   T T T
      0.822081565857       0.732309103012       0.435058385134   T T T
      0.536974191666       0.194733187556       0.770222723484   T T T
      0.665152132511       0.220907911658       0.752590537071   T T T
      0.094737097621       0.000015919115       0.752375662327   T T T
      0.071996986866       0.165267840028       0.755101561546   T T T
      0.803255498409       0.092446826398       0.499413520098   T T T
      0.821994364262       0.207246139646       0.470901668072   T T T
      0.027425689623       0.160280525684       0.385486811399   T T T
      0.070407822728       0.000093871429       0.384859204292   T T T
      0.440238475800       0.794583857059       0.671268880367   T T T
      0.375948309898       0.668322265148       0.690628230572   T T T
      0.696869373322       0.093433395028       0.443673998117   T T T
      0.816267251968       0.006169735454       0.434475839138   T T T
      0.145149707794       0.794577896595       0.702611386776   T T T
      0.000061549414       0.794516861439       0.704486548901   T T T
      0.311130613089       0.703041553497       0.742093443871   T T T
      0.422976851463       0.794582307339       0.728964507580   T T T
      0.053023934364       0.339653432369       0.886283755302   T T T
      0.138585358858       0.279530644417       0.857506096363   T T T
      0.104269787669       0.346818357706       0.605024158955   T T T
      0.000055056487       0.230008512735       0.605532228947   T T T
      0.749658644199       0.006649876479       0.883917450905   T T T
      0.821470916271       0.138612046838       0.898598730564   T T T
      0.506891548634       0.308649867773       0.401310175657   T T T
      0.398238778114       0.225656539202       0.383737385273   T T T
      0.123353846371       0.705600023270       0.553913056850   T T T
      0.000017610961       0.779723227024       0.542419850826   T T T
      0.822046935558       0.000093357907       0.558455348015   T T T
      0.736390471458       0.134520024061       0.554513335228   T T T
      0.042403366417       0.794485628605       0.753899574280   T T T
      0.000075424723       0.689814984798       0.782707333565   T T T
      0.233086153865       0.517358720303       0.909155189991   T T T
      0.182739421725       0.582575201988       0.875236272812   T T T
      0.229790046811       0.022019218653       0.721114218235   T T T
      0.326530069113       0.000021465130       0.750292479992   T T T
      0.000031842039       0.327897846699       0.671234846115   T T T
      0.134063974023       0.291304916143       0.683856546879   T T T
      0.417472153902       0.794420659542       0.383730977774   T T T
      0.529500424862       0.789972603321       0.409000664949   T T T
      0.822075188160       0.701595127583       0.650222897530   T T T
      0.723764955997       0.794475793839       0.669494450092   T T T
      0.000020101401       0.136153832078       0.866216063499   T T T
      0.084037728608       0.000059773713       0.862894594669   T T T
      0.213216155767       0.023712189868       0.555975973606   T T T
      0.125402405858       0.083261594176       0.527642607689   T T T
      0.032284982502       0.716622471809       0.914951741695   T T T
      0.067361302674       0.558347344398       0.923937737942   T T T
      0.312147885561       0.600280582905       0.812145471573   T T T
      0.389367222786       0.725387692451       0.828087449074   T T T
      0.661967277527       0.794493675232       0.951231002808   T T T
      0.543335080147       0.697720229626       0.951329231262   T T T
      0.250465393066       0.001447612420       0.383721321821   T T T
      0.299108296633       0.090675383806       0.414623856544   T T T
      0.357019811869       0.663696706295       0.878752648830   T T T
      0.458439916372       0.549130260944       0.870243847370   T T T
      0.756850481033       0.656938850880       0.567869305611   T T T
      0.822095394135       0.794549822807       0.581920325756   T T T
      0.772108018398       0.794570267200       0.867661118507   T T T
      0.819167852402       0.653953433037       0.885077416897   T T T
      0.746087312698       0.000109379725       0.616456747055   T T T
      0.822035908699       0.129706174135       0.602155566216   T T T
      0.098028838634       0.623612463474       0.731587171555   T T T
      0.000191496976       0.525001049042       0.713789939880   T T T
      0.566737055779       0.204521596432       0.580222189426   T T T
      0.453421413898       0.308789551258       0.577442526817   T T T
      0.466100573540       0.004585424438       0.665670216084   T T T
      0.408839344978       0.000277711544       0.702173650265   T T T
      0.000138753021       0.061836726964       0.636850416660   T T T
      0.115284286439       0.000051660096       0.656148135662   T T T
      0.730193734169       0.015834076330       0.943368375301   T T T
      0.636946320534       0.144230365753       0.945060431957   T T T
      0.609419047832       0.000220300019       0.483564555645   T T T
      0.505564332008       0.076079502702       0.462381511927   T T T
      0.418338418007       0.124545507133       0.620245933533   T T T
      0.327293932438       0.000669013651       0.610384523869   T T T
      0.684117436409       0.451397716999       0.655405998230   T T T
      0.822054326534       0.471181273460       0.666939437389   T T T
      0.782263576984       0.264321714640       0.383715093136   T T T
      0.809257745743       0.247968867421       0.422565847635   T T T
      0.656123816967       0.080202862620       0.704990565777   T T T
      0.661066472530       0.004634516779       0.669542491436   T T T
      0.135807991028       0.262541621923       0.809014260769   T T T
      0.000098105505       0.235218062997       0.796416878700   T T T
      0.788477063179       0.794009149075       0.385232388973   T T T
      0.669528424740       0.697960436344       0.383739471436   T T T
      0.016100153327       0.075106076896       0.571119904518   T T T
      0.097420282662       0.000044368117       0.598828554153   T T T
      0.666432082653       0.228916972876       0.666533172131   T T T
      0.798871457577       0.160179376602       0.667546212673   T T T
      0.820080339909       0.792975425720       0.793732225895   T T T
      0.822013437748       0.652059733868       0.815274536610   T T T
      0.000052032381       0.405394762754       0.443520992994   T T T
      0.074635073543       0.545819759369       0.450990647078   T T T
      0.410578280687       0.744324922562       0.448607623577   T T T
      0.272351175547       0.794572949409       0.445910841227   T T T
      0.220955908298       0.509022355080       0.683362364769   T T T
      0.199293449521       0.661247134209       0.667769014835   T T T
      0.000042159572       0.012531938031       0.951303780079   T T T
      0.000006937651       0.080743603408       0.915002703667   T T T
      0.248760953546       0.507697045803       0.752173602581   T T T
      0.325511842966       0.420184046030       0.778785705566   T T T
      0.262350827456       0.252258509398       0.464917749166   T T T
      0.379584878683       0.331957101822       0.450995802879   T T T
      0.640550851822       0.652420103550       0.636549711227   T T T
      0.587951898575       0.642899930477       0.673519790173   T T T
      0.786737263203       0.328681975603       0.619129717350   T T T
      0.714854300022       0.388898342848       0.587686181068   T T T
      0.194523215294       0.643603503704       0.951333582401   T T T
      0.131290152669       0.794585883617       0.950912833214   T T T
      0.822063386440       0.699319779873       0.944682657719   T T T
      0.821989595890       0.531604349613       0.944384038448   T T T
      0.599880456924       0.778835117817       0.725466310978   T T T
      0.534109771252       0.638436615467       0.737663805485   T T T
      0.059089843184       0.376705437899       0.393462002277   T T T
      0.130729809403       0.278398424387       0.419003725052   T T T
      0.295584052801       0.794480383396       0.789304554462   T T T
      0.186168685555       0.697835564613       0.776706516743   T T T
      0.389406800270       0.370551496744       0.626869618893   T T T
      0.258837103844       0.443291574717       0.629328191280   T T T
      0.821243226528       0.063799910247       0.383715212345   T T T
      0.680604040623       0.050744492561       0.393153697252   T T T
      0.007509563118       0.184925988317       0.492944628000   T T T
      0.000009517034       0.315836369991       0.517699360847   T T T
      0.000020546120       0.189078003168       0.710957229137   T T T
      0.000060215254       0.021409874782       0.709966659546   T T T
      0.482133865356       0.009976458736       0.544736742973   T T T
      0.568299412727       0.126793488860       0.528695344925   T T T
      0.646646380424       0.549366593361       0.857072055340   T T T
      0.575665056705       0.681417942047       0.842135608196   T T T
      0.303830176592       0.278905153275       0.708304584026   T T T
      0.433953195810       0.225885465741       0.695896446705   T T T
      0.802955746651       0.523189306259       0.452954024076   T T T
      0.718229889870       0.388078868389       0.457084387541   T T T
