Pt O H
      1.000000000000
     11.242998123169        0.000000000000        0.000000000000
      0.000000000000        9.736721992493        0.000000000000
      0.000000000000        0.000000000000       45.68760164005752
 112  100  200
Selected dynamics
Direct  
0 0 0  T T T 
0.25 0 0  T T T 
0.5 0 0  T T T 
0.75 0 0  T T T 
0.125 0.25 0  T T T 
0.375 0.25 0  T T T 
0.625 0.25 0  T T T 
0.875 0.25 0  T T T 
0 0.5 0  T T T 
0.25 0.5 0  T T T 
0.5 0.5 0  T T T 
0.75 0.5 0  T T T 
0.125 0.75 0  T T T 
0.375 0.75 0  T T T 
0.625 0.75 0  T T T 
0.875 0.75 0  T T T 
0.125 0.0833333 0.0502317  T T T 
0.375 0.0833333 0.0502317  T T T 
0.625 0.0833333 0.0502317  T T T 
0.875 0.0833333 0.0502317  T T T 
0 0.333333 0.0502317  T T T 
0.25 0.333333 0.0502317  T T T 
0.5 0.333333 0.0502317  T T T 
0.75 0.333333 0.0502317  T T T 
0.125 0.583333 0.0502317  T T T 
0.375 0.583333 0.0502317  T T T 
0.625 0.583333 0.0502317  T T T 
0.875 0.583333 0.0502317  T T T 
0 0.833333 0.0502317  T T T 
0.25 0.833333 0.0502317  T T T 
0.5 0.833333 0.0502317  T T T 
0.75 0.833333 0.0502317  T T T 
0 0.166667 0.100463  T T F 
0.25 0.166667 0.100463  T T F 
0.5 0.166667 0.100463  T T F 
0.75 0.166667 0.100463  T T F 
0.125 0.416667 0.100463  T T F 
0.375 0.416667 0.100463  T T F 
0.625 0.416667 0.100463  T T F 
0.875 0.416667 0.100463  T T F 
0 0.666667 0.100463  T T F 
0.25 0.666667 0.100463  T T F 
0.5 0.666667 0.100463  T T F 
0.75 0.666667 0.100463  T T F 
0.125 0.916667 0.100463  T T F 
0.375 0.916667 0.100463  T T F 
0.625 0.916667 0.100463  T T F 
0.875 0.916667 0.100463  T T F 
0 0 0.150695  T T F 
0.25 0 0.150695  T T F 
0.5 0 0.150695  T T F 
0.75 0 0.150695  T T F 
0.125 0.25 0.150695  T T F 
0.375 0.25 0.150695  T T F 
0.625 0.25 0.150695  T T F 
0.875 0.25 0.150695  T T F 
0 0.5 0.150695  T T F 
0.25 0.5 0.150695  T T F 
0.5 0.5 0.150695  T T F 
0.75 0.5 0.150695  T T F 
0.125 0.75 0.150695  T T F 
0.375 0.75 0.150695  T T F 
0.625 0.75 0.150695  T T F 
0.875 0.75 0.150695  T T F 
0.125 0.0833333 0.200927  T T F 
0.375 0.0833333 0.200927  T T F 
0.625 0.0833333 0.200927  T T F 
0.875 0.0833333 0.200927  T T F 
0 0.333333 0.200927  T T F 
0.25 0.333333 0.200927  T T F 
0.5 0.333333 0.200927  T T F 
0.75 0.333333 0.200927  T T F 
0.125 0.583333 0.200927  T T F 
0.375 0.583333 0.200927  T T F 
0.625 0.583333 0.200927  T T F 
0.875 0.583333 0.200927  T T F 
0 0.833333 0.200927  T T F 
0.25 0.833333 0.200927  T T F 
0.5 0.833333 0.200927  T T F 
0.75 0.833333 0.200927  T T F 
0 0.166667 0.251159  T T T 
0.25 0.166667 0.251159  T T T 
0.5 0.166667 0.251159  T T T 
0.75 0.166667 0.251159  T T T 
0.125 0.416667 0.251159  T T T 
0.375 0.416667 0.251159  T T T 
0.625 0.416667 0.251159  T T T 
0.875 0.416667 0.251159  T T T 
0 0.666667 0.251159  T T T 
0.25 0.666667 0.251159  T T T 
0.5 0.666667 0.251159  T T T 
0.75 0.666667 0.251159  T T T 
0.125 0.916667 0.251159  T T T 
0.375 0.916667 0.251159  T T T 
0.625 0.916667 0.251159  T T T 
0.875 0.916667 0.251159  T T T 
0 0 0.30139  T T T 
0.25 0 0.30139  T T T 
0.5 0 0.30139  T T T 
0.75 0 0.30139  T T T 
0.125 0.25 0.30139  T T T 
0.375 0.25 0.30139  T T T 
0.625 0.25 0.30139  T T T 
0.875 0.25 0.30139  T T T 
0 0.5 0.30139  T T T 
0.25 0.5 0.30139  T T T 
0.5 0.5 0.30139  T T T 
0.75 0.5 0.30139  T T T 
0.125 0.75 0.30139  T T T 
0.375 0.75 0.30139  T T T 
0.625 0.75 0.30139  T T T 
0.875 0.75 0.30139  T T T 
0.0460791 0.722528 0.593911  T T T 
0.239362 0.460005 0.495325  T T T 
0.162637 0.600496 0.351858  T T T 
0.800284 0.490571 0.459697  T T T 
0.497456 0.0232376 0.799534  T T T 
0.613905 0.374416 0.802821  T T T 
0.221023 0.472105 0.78992  T T T 
0.209555 0.341229 0.88336  T T T 
0.279867 1.02704e-07 0.438011  T T T 
0.79873 0.296129 0.704786  T T T 
0.768719 0.513734 0.611213  T T T 
0.407258 0.317768 0.628336  T T T 
0.241745 0.701514 0.568409  T T T 
0.0527143 0.715925 0.393665  T T T 
0.470365 0.387622 0.485469  T T T 
0.734691 0.367222 0.849786  T T T 
0.575707 0.193231 0.649261  T T T 
0.218916 0.666045 0.633299  T T T 
0.168106 0.32747 0.715238  T T T 
0.270749 0.283153 0.81312  T T T 
0.552234 0.743016 0.555039  T T T 
0.498906 0.259685 0.905991  T T T 
0.47579 0.463552 0.532854  T T T 
0.54433 0.530142 0.362296  T T T 
0.726774 0.509647 0.67808  T T T 
0.718248 0.789245 0.52719  T T T 
0.310956 0.222035 0.768018  T T T 
0.0280448 0.786291 0.446731  T T T 
0.363779 0.283855 0.451649  T T T 
0.568995 0.25122 0.848875  T T T 
0.657752 0.521705 0.487595  T T T 
0.187322 0.255967 0.618187  T T T 
0.822099 0.789879 0.684913  T T T 
0.741755 0.75172 0.440445  T T T 
0.497892 0.219098 0.714254  T T T 
0.119112 0.109542 0.694013  T T T 
0.817139 0.381194 0.548087  T T T 
0.243985 0.315768 0.366682  T T T 
0.554968 0.794591 0.677244  T T T 
0.351905 0.230256 0.501773  T T T 
0.212158 0.791572 0.681805  T T T 
0.341989 0.683498 0.468351  T T T 
1.51205e-05 0.346749 0.830699  T T T 
0.0512608 0.229162 0.652204  T T T 
0.346598 0.00202768 0.884411  T T T 
0.51199 0.248734 0.35505  T T T 
0.0289988 0.706313 0.511063  T T T 
0.78156 0.149971 0.54212  T T T 
0.0440971 0.545017 0.690343  T T T 
0.0797265 0.570052 0.818047  T T T 
0.430538 0.0762078 0.747823  T T T 
0.0586879 0.470294 0.600223  T T T 
0.339877 0.784155 0.397501  T T T 
0.670424 0.472056 0.755357  T T T 
0.0881607 0.0191666 0.745607  T T T 
0.229887 0.0257477 0.551185  T T T 
0.0491107 0.491507 0.880025  T T T 
0.179884 0.767192 0.763242  T T T 
0.652945 0.692231 0.900528  T T T 
0.309853 0.0445548 0.368202  T T T 
0.292146 0.741313 0.846157  T T T 
0.498189 0.221193 0.419608  T T T 
0.573162 0.794567 0.799805  T T T 
0.725769 0.108358 0.767687  T T T 
0.286333 0.590723 0.716818  T T T 
0.362594 0.476881 0.670083  T T T 
0.3642 0.0316446 0.681626  T T T 
0.0690244 0.060206 0.585945  T T T 
0.677561 0.0946135 0.886714  T T T 
0.604663 3.25572e-05 0.457444  T T T 
0.311783 0.198289 0.572493  T T T 
0.688637 0.75155 0.588106  T T T 
0.377388 0.493237 0.41177  T T T 
0.551816 0.0375875 0.595746  T T T 
4.19817e-05 0.586401 0.77104  T T T 
0.563242 0.681938 0.437627  T T T 
0.021023 0.323094 0.510485  T T T 
0.747257 0.0769454 0.635483  T T T 
0.698393 0.753532 0.759191  T T T 
0.163102 0.508328 0.409437  T T T 
0.326655 0.709936 0.517156  T T T 
0.166553 0.515965 0.538215  T T T 
0.0675848 0.085685 0.886527  T T T 
0.456379 0.682279 0.763103  T T T 
0.643208 0.539935 0.406172  T T T 
0.290815 0.239117 0.680117  T T T 
0.641909 0.285504 0.448589  T T T 
0.161282 0.790384 0.887791  T T T 
0.742499 0.425902 0.900756  T T T 
0.46618 0.590267 0.6333  T T T 
0.0500811 0.485659 0.456293  T T T 
0.592091 0.649587 0.854396  T T T 
0.468032 0.5467 0.585461  T T T 
0.750981 0.0670736 0.364092  T T T 
0.158212 0.268276 0.428726  T T T 
0.0737885 0.21276 0.550061  T T T 
0.622414 0.0707341 0.520167  T T T 
0.530586 0.530879 0.722573  T T T 
0.640677 0.281526 0.574505  T T T 
0.822109 0.31666 0.406898  T T T 
0.109708 0.794212 0.594661  T T T 
0.0472507 0.676608 0.574333  T T T 
0.309891 0.458976 0.508661  T T T 
0.19936 0.368299 0.495841  T T T 
0.227895 0.67029 0.351857  T T T 
0.0839004 0.648282 0.351869  T T T 
0.822111 0.565449 0.473684  T T T 
0.814008 0.399336 0.469167  T T T 
0.508788 0.121057 0.805598  T T T 
0.410828 3.45085e-05 0.800005  T T T 
0.528957 0.344012 0.803215  T T T 
0.617804 0.476277 0.80546  T T T 
0.211993 0.412988 0.772158  T T T 
0.299432 0.52048 0.789183  T T T 
0.258744 0.356623 0.86542  T T T 
0.252783 0.377554 0.900854  T T T 
0.208549 0.0262186 0.449839  T T T 
0.280621 0.0538193 0.419369  T T T 
0.822053 0.265706 0.724889  T T T 
0.710696 0.31037 0.704007  T T T 
0.817584 0.597108 0.606875  T T T 
0.821895 0.431683 0.612671  T T T 
0.486207 0.364735 0.627112  T T T 
0.342317 0.387247 0.626215  T T T 
0.23176 0.611993 0.578855  T T T 
0.327759 0.727679 0.568286  T T T 
0.00320849 0.63268 0.397663  T T T 
7.0266e-06 0.793424 0.387492  T T T 
0.548404 0.344143 0.490416  T T T 
0.479082 0.489834 0.485665  T T T 
0.690525 0.456375 0.849877  T T T 
0.822111 0.385554 0.848749  T T T 
0.541192 0.111474 0.65943  T T T 
0.613637 0.255251 0.664002  T T T 
0.220092 0.569277 0.625967  T T T 
0.134667 0.697173 0.6356  T T T 
0.12381 0.385189 0.729694  T T T 
0.235175 0.27947 0.725341  T T T 
0.345194 0.254938 0.823482  T T T 
0.200068 0.254802 0.824956  T T T 
0.510543 0.794469 0.570965  T T T 
0.497506 0.671972 0.546762  T T T 
0.448013 0.343605 0.904437  T T T 
0.577031 0.276969 0.896195  T T T 
0.56381 0.478358 0.532899  T T T 
0.458546 0.362792 0.532747  T T T 
0.473333 0.468372 0.361528  T T T 
0.517468 0.627866 0.3636  T T T 
0.721073 0.573066 0.695241  T T T 
0.647477 0.503224 0.668258  T T T 
0.648031 0.791374 0.51376  T T T 
0.731149 0.693259 0.534304  T T T 
0.286512 0.133588 0.777381  T T T 
0.390615 0.250277 0.775675  T T T 
0.00566851 0.688028 0.443526  T T T 
0.116626 0.794492 0.447681  T T T 
0.315434 0.197669 0.45118  T T T 
0.30965 0.365243 0.450728  T T T 
0.618389 0.16926 0.843748  T T T 
0.488025 0.220442 0.855127  T T T 
0.698752 0.458638 0.50162  T T T 
0.622808 0.600888 0.498569  T T T 
0.115651 0.257766 0.605229  T T T 
0.231395 0.167866 0.615192  T T T 
0.740803 0.794587 0.693739  T T T 
0.815515 0.792272 0.66309  T T T 
0.751119 0.653211 0.434693  T T T 
0.822032 0.794334 0.442972  T T T 
0.446466 0.276671 0.727232  T T T 
0.570281 0.189451 0.725294  T T T 
0.0470161 0.166353 0.698229  T T T 
0.0946133 0.0223234 0.684149  T T T 
0.760882 0.460696 0.547448  T T T 
0.82151 0.344711 0.56852  T T T 
0.256056 0.417371 0.365477  T T T 
0.322774 0.268392 0.365561  T T T 
0.605886 0.789958 0.659324  T T T 
0.515133 0.703931 0.680365  T T T 
0.416646 0.177828 0.491749  T T T 
0.281401 0.169108 0.504652  T T T 
0.183014 0.69454 0.682084  T T T 
0.296271 0.794568 0.688897  T T T 
0.390976 0.769219 0.468619  T T T 
0.257275 0.706727 0.472826  T T T 
0.0258154 0.276341 0.845317  T T T 
0.0230528 0.316041 0.810595  T T T 
2.94405e-05 0.312962 0.651089  T T T 
2.06351e-05 0.145257 0.651578  T T T 
0.257666 1.07839e-05 0.88443  T T T 
0.374589 0.0995197 0.884406  T T T 
0.501101 0.166832 0.367984  T T T 
0.598795 0.264384 0.35163  T T T 
0.0791087 0.739663 0.494433  T T T 
0.0495636 0.758742 0.529192  T T T 
0.821482 0.113535 0.560074  T T T 
0.821918 0.112424 0.524331  T T T 
1.87672e-05 0.591239 0.674081  T T T 
0.0303841 0.443647 0.689326  T T T 
0.119967 0.539162 0.836425  T T T 
0.0157218 0.637494 0.822994  T T T 
0.379748 0.0492922 0.730793  T T T 
0.488117 0.000689452 0.752221  T T T 
0.0329248 0.534245 0.616135  T T T 
0.000721516 0.474973 0.583651  T T T 
0.350841 0.794449 0.37589  T T T 
0.253697 0.794381 0.402463  T T T 
0.727109 0.482404 0.738633  T T T 
0.639548 0.375762 0.755861  T T T 
0.00821142 0.0432435 0.7375  T T T 
0.142664 0.0998048 0.743631  T T T 
0.147466 0.000393459 0.544976  T T T 
0.287423 6.51143e-05 0.535415  T T T 
0.000259184 0.407471 0.88375  T T T 
7.24896e-05 0.575189 0.883957  T T T 
0.19246 0.751334 0.741838  T T T 
0.0953071 0.794326 0.766779  T T T 
0.56645 0.669014 0.901791  T T T 
0.6624 0.793669 0.898003  T T T 
0.365667 0.0253528 0.351657  T T T 
0.228771 0.0643129 0.360247  T T T 
0.366361 0.79417 0.841832  T T T 
0.29826 0.647516 0.837366  T T T 
0.565055 0.159902 0.413464  T T T 
0.421958 0.186447 0.4111  T T T 
0.485853 0.794535 0.80399  T T T 
0.602941 0.69782 0.799239  T T T 
0.642974 0.142131 0.771181  T T T 
0.735591 0.084556 0.746532  T T T 
0.362198 0.643268 0.719097  T T T 
0.3012 0.491292 0.720906  T T T 
0.449959 0.462218 0.672758  T T T 
0.344403 0.577244 0.671354  T T T 
0.363094 0.0191882 0.6599  T T T 
0.286645 0.000414821 0.690028  T T T 
7.84488e-05 1.07839e-05 0.580778  T T T 
0.137017 0.00203159 0.592688  T T T 
0.761923 0.121242 0.882722  T T T 
0.67468 0.0319877 0.904049  T T T 
0.667415 0.0433715 0.44498  T T T 
0.524445 0.0313668 0.450747  T T T 
0.363077 0.120226 0.579053  T T T 
0.361297 0.283131 0.570561  T T T 
0.718553 0.792406 0.60679  T T T 
0.648426 0.662115 0.592341  T T T 
0.384096 0.404068 0.401033  T T T 
0.390134 0.570958 0.397807  T T T 
0.526609 0.126299 0.604868  T T T 
0.545288 0.0447888 0.57397  T T T 
0.03299 0.492457 0.774583  T T T 
0.00996176 0.610929 0.749925  T T T 
0.483228 0.637149 0.437062  T T T 
0.553747 0.783614 0.435594  T T T 
0.000711109 0.260085 0.493937  T T T 
0.0134284 0.420567 0.503842  T T T 
0.67726 0.0157677 0.631957  T T T 
0.822094 0.0216866 0.634346  T T T 
0.683022 0.794108 0.739441  T T T 
0.764578 0.68523 0.757784  T T T 
0.103406 0.457106 0.39743  T T T 
0.19587 0.586446 0.397734  T T T 
0.370132 0.794385 0.52354  T T T 
0.239457 0.722522 0.520545  T T T 
0.0797171 0.519037 0.542913  T T T 
0.204578 0.438398 0.549092  T T T 
1.68994e-05 0.152351 0.887425  T T T 
0.091757 0.071797 0.865671  T T T 
0.497157 0.765766 0.755237  T T T 
0.374186 0.707135 0.769581  T T T 
0.692683 0.592044 0.391765  T T T 
0.638313 0.44147 0.400062  T T T 
0.245734 0.28304 0.663733  T T T 
0.377986 0.25416 0.677169  T T T 
0.688118 0.241604 0.464785  T T T 
0.646814 0.387681 0.450462  T T T 
0.196502 0.69615 0.886959  T T T 
0.072564 0.783606 0.887152  T T T 
0.665225 0.470482 0.905977  T T T 
0.793388 0.492794 0.889843  T T T 
0.553895 0.606541 0.632212  T T T 
0.423235 0.679617 0.631095  T T T 
6.14605e-05 0.400728 0.456359  T T T 
0.136086 0.459511 0.455906  T T T 
0.538689 0.603544 0.8399  T T T 
0.666303 0.680889 0.84434  T T T 
0.391375 0.494602 0.585551  T T T 
0.536076 0.480659 0.584642  T T T 
0.76441 0.168232 0.365949  T T T 
0.667789 0.0445848 0.370179  T T T 
0.209869 0.239106 0.412026  T T T 
0.0731375 0.268472 0.422336  T T T 
0.0580431 0.304209 0.559242  T T T 
0.148591 0.217571 0.538261  T T T 
0.552631 0.0102394 0.515922  T T T 
0.59388 0.160015 0.528401  T T T 
0.567925 0.455353 0.710927  T T T 
0.48199 0.490452 0.738756  T T T 
0.647338 0.306075 0.595697  T T T 
0.554973 0.269541 0.569232  T T T 
0.811991 0.362284 0.387445  T T T 
0.754447 0.251984 0.410348  T T T 
