 B  C  N 
 1.0000000000000000
    25.0000000000000000    0.0000000000000000    0.0000000000000000
     0.0000000000000000   25.0000000000000000    0.0000000000000000
     0.0000000000000000    0.0000000000000000   15.1799999999999997
  48  48  48
Cartesian
 16.6845863162514050 12.5000000000000000  0.0000000000000024
 12.5000000000000000 16.6845863162514050  3.7950000000000013
 12.5000000000000000  8.3154136837485986 11.3849999999999998
 12.5000000000000000  8.3154136837485986  6.3250000000000011
  9.2944209056839000 15.1898002357502406  5.0600000000000014
  8.3154136837485986 12.5000000000000000  7.5900000000000016
  8.3154136837485986 12.5000000000000000  2.5300000000000011
  9.2944209056839000 15.1898002357502406 15.1799999999999997
  9.8101997642497594  9.2944209056839000  3.7949999999999995
  9.2944209056839000 15.1898002357502406 10.1200000000000010
 12.5000000000000000  8.3154136837485986  3.7950000000000004
 12.5000000000000000 16.6845863162514050  8.8550000000000004
 15.7055790943160982  9.8101997642497558 12.6499999999999986
 15.7055790943160982  9.8101997642497558  5.0599999999999996
 12.5000000000000000 16.6845863162514050 13.9149999999999991
 16.6845863162514050 12.5000000000000000  5.0600000000000023
 15.1898002357502406 15.7055790943161000  8.8550000000000022
 15.1898002357502406 15.7055790943161000  6.3250000000000020
  9.2944209056839000 15.1898002357502406 12.6500000000000004
 12.5000000000000000 16.6845863162514050  6.3250000000000020
 16.6845863162514050 12.5000000000000000  7.5900000000000025
 15.1898002357502406 15.7055790943161000 13.9150000000000009
  9.2944209056839000 15.1898002357502406  7.5900000000000007
  8.3154136837485986 12.5000000000000000  5.0600000000000014
 15.7055790943160982  9.8101997642497558  7.5899999999999990
  9.8101997642497594  9.2944209056839000  6.3250000000000002
  8.3154136837485986 12.5000000000000000 12.6500000000000004
  9.8101997642497594  9.2944209056839000  8.8549999999999986
 16.6845863162514050 12.5000000000000000 12.6500000000000004
  8.3154136837485986 12.5000000000000000  0.0000000000000016
 12.5000000000000000  8.3154136837485986 13.9149999999999991
 16.6845863162514050 12.5000000000000000 10.1200000000000010
  9.8101997642497594  9.2944209056839000  1.2650000000000001
  9.8101997642497594  9.2944209056839000 11.3849999999999980
 15.1898002357502406 15.7055790943161000 11.3849999999999998
  9.2944209056839000 15.1898002357502406  2.5300000000000011
 12.5000000000000000  8.3154136837485986  1.2650000000000010
 12.5000000000000000 16.6845863162514050 11.3849999999999998
 15.7055790943160982  9.8101997642497558 10.1199999999999992
  9.8101997642497594  9.2944209056839000 13.9149999999999974
 15.7055790943160982  9.8101997642497558 15.1799999999999979
 15.7055790943160982  9.8101997642497558  2.5299999999999994
 12.5000000000000000 16.6845863162514050  1.2650000000000019
  8.3154136837485986 12.5000000000000000 10.1199999999999992
 16.6845863162514050 12.5000000000000000  2.5300000000000020
 12.5000000000000000  8.3154136837485986  8.8550000000000004
 15.1898002357502406 15.7055790943161000  1.2650000000000021
 15.1898002357502406 15.7055790943161000  3.7950000000000017
 16.1239580542024541 10.4077068418742975  6.3249999999999993
 16.1239580542024541 10.4077068418742975 13.9149999999999974
 13.9312128116429346  8.5677751175768684  6.3250000000000011
 11.0687871883570637 16.4322248824231281 11.3849999999999998
  8.5677751175768702 11.0687871883570637 12.6500000000000004
 10.4077068418742975  8.8760419457975441  7.5900000000000007
 16.4322248824231281 13.9312128116429363  7.5900000000000025
 16.1239580542024541 10.4077068418742975 11.3849999999999980
 14.5922931581257007 16.1239580542024576  7.5900000000000025
 16.4322248824231281 13.9312128116429363 10.1200000000000010
 11.0687871883570637 16.4322248824231281  8.8550000000000004
 16.1239580542024541 10.4077068418742975  8.8549999999999986
  8.8760419457975424 14.5922931581257025  8.8550000000000004
 13.9312128116429346  8.5677751175768684 11.3849999999999998
 10.4077068418742975  8.8760419457975441 10.1199999999999992
 13.9312128116429346  8.5677751175768684  8.8550000000000004
 14.5922931581257007 16.1239580542024576 10.1200000000000010
  8.5677751175768702 11.0687871883570637 10.1200000000000010
 14.5922931581257007 16.1239580542024576 12.6500000000000004
 16.4322248824231281 13.9312128116429363 12.6500000000000004
 16.4322248824231281 13.9312128116429363  0.0000000000000024
 14.5922931581257007 16.1239580542024576  0.0000000000000020
 11.0687871883570637 16.4322248824231281  1.2650000000000019
 13.9312128116429346  8.5677751175768684 13.9149999999999991
  8.8760419457975424 14.5922931581257025  1.2650000000000010
  8.5677751175768702 11.0687871883570637  2.5300000000000011
 10.4077068418742975  8.8760419457975441  0.0000000000000007
 10.4077068418742975  8.8760419457975441 12.6499999999999986
 13.9312128116429346  8.5677751175768684  1.2650000000000010
 16.1239580542024541 10.4077068418742975  1.2649999999999992
 16.4322248824231281 13.9312128116429363  2.5300000000000020
  8.5677751175768702 11.0687871883570637 15.1799999999999997
 14.5922931581257007 16.1239580542024576  2.5300000000000016
 10.4077068418742975  8.8760419457975441  5.0600000000000005
  8.8760419457975424 14.5922931581257025  3.7950000000000004
 11.0687871883570637 16.4322248824231281  3.7950000000000013
  8.5677751175768702 11.0687871883570637  5.0600000000000014
  8.5677751175768702 11.0687871883570637  7.5900000000000007
  8.8760419457975424 14.5922931581257025  6.3250000000000011
 11.0687871883570637 16.4322248824231281  6.3250000000000020
 14.5922931581257007 16.1239580542024576  5.0600000000000014
  8.8760419457975424 14.5922931581257025 13.9149999999999991
 16.4322248824231281 13.9312128116429363  5.0600000000000023
 16.1239580542024541 10.4077068418742975  3.7949999999999986
  8.8760419457975424 14.5922931581257025 11.3849999999999998
 13.9312128116429346  8.5677751175768684  3.7950000000000004
 10.4077068418742975  8.8760419457975441  2.5300000000000002
 11.0687871883570637 16.4322248824231281 13.9149999999999991
  8.8760419457975424 10.4077068418743011 13.9149999999999974
 11.7733542118929684  8.3789869526068230 12.6499999999999986
 11.7733542118929684  8.3789869526068230 15.1799999999999979
 10.4077068418742993 16.1239580542024576 12.6500000000000004
  8.8760419457975424 10.4077068418743011 11.3849999999999980
 14.5922931581256989  8.8760419457975406 10.1199999999999992
 16.1239580542024576 14.5922931581257007 13.9150000000000009
 14.5922931581256989  8.8760419457975406 12.6499999999999968
  8.3789869526068230 13.2266457881070298 13.9149999999999991
 16.6210130473931770 11.7733542118929666 11.3849999999999980
 13.2266457881070298 16.6210130473931770 15.1799999999999997
 16.6210130473931770 11.7733542118929666  6.3249999999999993
 10.4077068418742993 16.1239580542024576 10.1199999999999992
 11.7733542118929684  8.3789869526068230  5.0600000000000005
  8.8760419457975424 10.4077068418743011  3.7949999999999995
  8.3789869526068230 13.2266457881070298  3.7950000000000004
 10.4077068418742993 16.1239580542024576  2.5300000000000011
 13.2266457881070298 16.6210130473931770  5.0600000000000014
 16.1239580542024576 14.5922931581257007  3.7950000000000017
 14.5922931581256989  8.8760419457975406  2.5299999999999994
 16.6210130473931770 11.7733542118929666  1.2649999999999992
 11.7733542118929684  8.3789869526068230  2.5300000000000002
  8.8760419457975424 10.4077068418743011  1.2650000000000001
  8.3789869526068230 13.2266457881070298  1.2650000000000010
 10.4077068418742993 16.1239580542024576  0.0000000000000016
 13.2266457881070298 16.6210130473931770  2.5300000000000016
 16.1239580542024576 14.5922931581257007  1.2650000000000021
 14.5922931581256989  8.8760419457975406 -0.0000000000000002
 16.6210130473931770 11.7733542118929666  3.7949999999999986
 16.1239580542024576 14.5922931581257007  6.3250000000000020
 13.2266457881070298 16.6210130473931770  7.5900000000000016
 13.2266457881070298 16.6210130473931770 12.6500000000000004
 16.1239580542024576 14.5922931581257007 11.3849999999999998
 16.6210130473931770 11.7733542118929666  8.8549999999999986
 14.5922931581256989  8.8760419457975406  7.5899999999999999
 11.7733542118929684  8.3789869526068230 10.1199999999999992
  8.8760419457975424 10.4077068418743011  8.8549999999999986
  8.3789869526068230 13.2266457881070298  8.8550000000000004
 10.4077068418742993 16.1239580542024576  7.5900000000000016
 13.2266457881070298 16.6210130473931770 10.1200000000000010
 16.1239580542024576 14.5922931581257007  8.8550000000000022
 14.5922931581256989  8.8760419457975406  5.0599999999999996
 11.7733542118929684  8.3789869526068230  7.5900000000000007
  8.8760419457975424 10.4077068418743011  6.3250000000000002
  8.3789869526068230 13.2266457881070298  6.3250000000000011
 10.4077068418742993 16.1239580542024576  5.0600000000000014
  8.3789869526068230 13.2266457881070298 11.3849999999999998
 16.6210130473931770 11.7733542118929666 13.9149999999999974
