 B  C  N 
 1.0000000000000000
    25.0000000000000000    0.0000000000000000    0.0000000000000000
     0.0000000000000000   25.0000000000000000    0.0000000000000000
     0.0000000000000000    0.0000000000000000   15.1799999999999997
 128 128 128
Cartesian
 16.6845863162514050 12.5000000000000000  0.0000000000000024
  9.2944209056839000 15.1898002357502406 12.6500000000000004
 17.6829227794762360  7.8332753680761975  3.7949999999999973
  8.3154136837485986 12.5000000000000000 10.1199999999999992
 19.3219051088413707 13.9500406939744792 12.6500000000000057
  9.8101997642497594  9.2944209056839000 11.3849999999999980
 14.6551804769175682  5.8670365265492856  2.5299999999999967
 17.1667246319238025 17.6829227794762325 12.6500000000000039
 12.5000000000000000  8.3154136837485986 11.3849999999999998
 14.6551804769175682 19.1329634734507152 10.1200000000000028
 15.7055790943160982  9.8101997642497558 12.6499999999999986
 19.1329634734507152 10.3448195230824300 11.3849999999999945
 16.6845863162514050 12.5000000000000000 12.6500000000000004
  8.4006031272708981  6.8576642595395967  3.7950000000000008
 15.1898002357502406 15.7055790943161000 13.9150000000000009
 11.7709860382523175  5.5638954757158574  5.0599999999999969
 12.5000000000000000 16.6845863162514050 11.3849999999999998
 18.1423357404604033 16.5993968727291019 12.6500000000000057
 19.1329634734507152 10.3448195230824300  3.7949999999999937
  9.0128447364571667 18.5399300903374282  7.5900000000000016
 12.5000000000000000 16.6845863162514050  8.8550000000000004
  9.2944209056839000 15.1898002357502406 10.1200000000000010
 12.5000000000000000 19.4743105270856702  6.3250000000000020
 12.5000000000000000 19.4743105270856702 13.9150000000000027
  8.3154136837485986 12.5000000000000000  7.5900000000000016
 15.3367076515550416 18.8713497022080858  6.3250000000000028
  9.8101997642497594  9.2944209056839000  8.8549999999999986
 12.5000000000000000  8.3154136837485986  8.8550000000000004
 18.1423357404604033 16.5993968727291019  5.0600000000000032
 15.3367076515550416 18.8713497022080858 13.9150000000000045
 15.7055790943160982  9.8101997642497558 10.1199999999999992
 16.6845863162514050 12.5000000000000000 10.1200000000000010
 19.3219051088413707 13.9500406939744792  5.0600000000000041
 15.1898002357502406 15.7055790943161000 11.3849999999999998
  6.4600699096625700  9.0128447364571667  3.7949999999999990
 15.1898002357502406 15.7055790943161000  8.8550000000000022
 12.5000000000000000 16.6845863162514050 13.9149999999999991
  9.2944209056839000 15.1898002357502406 15.1799999999999997
 10.3448195230824318 19.1329634734507152  0.0000000000000010
 17.1667246319238025 17.6829227794762325  5.0600000000000032
  7.3170772205237675 17.1667246319238025  1.2650000000000001
 19.1329634734507152 14.6551804769175682  3.7950000000000035
  5.8670365265492865 14.6551804769175682  1.2650000000000001
  6.4600699096625700  9.0128447364571667 11.3849999999999998
  8.4006031272708981  6.8576642595395967 11.3850000000000016
  5.6780948911586275 11.0499593060255226  2.5299999999999985
  6.1286502977919133 15.3367076515550416 12.6500000000000021
  6.8576642595395949  8.4006031272708981 -0.0000000000000017
 18.1423357404604033  8.4006031272708963 -0.0000000000000034
  9.6632923484449602  6.1286502977919115  1.2650000000000001
  5.5256894729143298 12.5000000000000000 10.1199999999999992
 12.4999999999999982  5.5256894729143298  1.2649999999999966
 19.4361045242841399 11.7709860382523175  1.2649999999999930
 13.2290139617476825 19.4361045242841399  2.5300000000000020
 14.6551804769175682 19.1329634734507152  2.5300000000000020
 16.5993968727291019 18.1423357404604033  1.2650000000000023
  5.5256894729143298 12.5000000000000000  2.5299999999999985
 11.0499593060255208 19.3219051088413707 11.3850000000000016
  8.3154136837485986 12.5000000000000000 12.6500000000000004
  6.1286502977919133 15.3367076515550416  5.0600000000000005
  9.8101997642497594  9.2944209056839000 13.9149999999999974
 14.6551804769175682  5.8670365265492856 10.1199999999999974
 12.5000000000000000  8.3154136837485986 13.9149999999999991
  8.4006031272708981 18.1423357404604033  3.7950000000000008
 15.7055790943160982  9.8101997642497558 15.1799999999999979
  5.6780948911586275 11.0499593060255226 10.1199999999999992
 19.4743105270856702 12.5000000000000000  0.0000000000000032
 11.0499593060255208 19.3219051088413707  3.7950000000000017
 11.7709860382523175  5.5638954757158574 12.6499999999999986
 18.5399300903374282 15.9871552635428351  1.2650000000000028
  8.4006031272708981 18.1423357404604033 11.3850000000000016
 17.6829227794762360  7.8332753680761975 11.3849999999999980
  9.0128447364571667 18.5399300903374282 15.1800000000000033
 19.1329634734507152 14.6551804769175682 11.3850000000000051
 16.6845863162514050 12.5000000000000000  7.5900000000000025
 18.5399300903374282 15.9871552635428351  8.8550000000000040
 10.3448195230824300  5.8670365265492865 12.6499999999999986
 12.5000000000000000 16.6845863162514050  3.7950000000000013
 12.4999999999999982  5.5256894729143298  8.8549999999999969
  9.2944209056839000 15.1898002357502406  5.0600000000000014
 19.4743105270856702 12.5000000000000000  7.5900000000000043
 15.1898002357502406 15.7055790943161000  3.7950000000000017
  8.3154136837485986 12.5000000000000000  2.5300000000000011
  7.8332753680761957  7.3170772205237675 15.1800000000000015
  9.8101997642497594  9.2944209056839000  3.7949999999999995
 18.8713497022080894  9.6632923484449602  7.5899999999999981
 12.5000000000000000  8.3154136837485986  3.7950000000000004
 16.5993968727291019  6.8576642595395949  6.3249999999999975
 15.9871552635428351  6.4600699096625718 10.1199999999999974
 19.4361045242841399 11.7709860382523175  8.8549999999999933
 16.5993968727291019 18.1423357404604033  8.8550000000000040
 16.6845863162514050 12.5000000000000000  2.5300000000000020
 15.7055790943160982  9.8101997642497558  2.5299999999999994
  6.8576642595395949  8.4006031272708981  7.5899999999999999
 18.8713497022080894  9.6632923484449602 15.1799999999999997
 15.1898002357502406 15.7055790943161000  1.2650000000000021
  5.8670365265492865 14.6551804769175682  8.8550000000000004
 12.5000000000000000 16.6845863162514050  1.2650000000000019
  9.2944209056839000 15.1898002357502406  2.5300000000000011
  7.3170772205237675 17.1667246319238025  8.8550000000000004
 16.5993968727291019  6.8576642595395949 13.9149999999999991
  8.3154136837485986 12.5000000000000000  0.0000000000000016
 10.3448195230824318 19.1329634734507152  7.5900000000000016
  9.8101997642497594  9.2944209056839000  1.2650000000000001
  9.6632923484449602  6.1286502977919115  8.8550000000000004
 12.5000000000000000  8.3154136837485986  1.2650000000000010
 13.2290139617476825 19.4361045242841399 10.1200000000000028
 13.9500406939744810  5.6780948911586284 13.9149999999999991
 15.7055790943160982  9.8101997642497558  5.0599999999999996
  5.8670365265492856 10.3448195230824318 13.9150000000000009
 15.9871552635428351  6.4600699096625718  2.5299999999999967
  5.5638954757158583 13.2290139617476861 13.9150000000000027
  9.2944209056839000 15.1898002357502406  7.5900000000000007
  9.8101997642497594  9.2944209056839000  6.3250000000000002
  5.5638954757158583 13.2290139617476861  6.3250000000000011
  6.8576642595395967 16.5993968727291019 12.6500000000000021
 18.1423357404604033  8.4006031272708963  7.5899999999999981
 12.5000000000000000 16.6845863162514050  6.3250000000000020
 10.3448195230824300  5.8670365265492865  5.0599999999999969
 12.5000000000000000  8.3154136837485986  6.3250000000000011
  8.3154136837485986 12.5000000000000000  5.0600000000000014
  7.8332753680761957  7.3170772205237675  7.5899999999999999
 16.6845863162514050 12.5000000000000000  5.0600000000000023
 15.1898002357502406 15.7055790943161000  6.3250000000000020
 13.9500406939744810  5.6780948911586284  6.3249999999999975
  5.8670365265492856 10.3448195230824318  6.3249999999999993
  6.8576642595395967 16.5993968727291019  5.0600000000000005
 15.7055790943160982  9.8101997642497558  7.5899999999999990
 18.8713497022080894  9.6632923484449602 10.1199999999999974
 14.6551804769175682 19.1329634734507152  5.0600000000000023
 19.1329634734507152 10.3448195230824300 13.9149999999999956
 12.5000000000000000 19.4743105270856702  8.8550000000000022
  9.0128447364571667 18.5399300903374282 10.1200000000000028
  7.3170772205237675 17.1667246319238025 11.3850000000000016
 16.5993968727291019 18.1423357404604033  3.7950000000000026
 15.9871552635428351  6.4600699096625718  5.0599999999999969
  5.5256894729143298 12.5000000000000000  5.0599999999999987
 19.4743105270856702 12.5000000000000000  2.5300000000000038
 11.0499593060255208 19.3219051088413707  6.3250000000000020
  6.8576642595395967 16.5993968727291019  7.5900000000000016
  7.8332753680761957  7.3170772205237675 10.1199999999999992
 19.4743105270856702 12.5000000000000000 10.1200000000000045
 18.8713497022080894  9.6632923484449602  2.5299999999999967
  5.5638954757158583 13.2290139617476861  8.8550000000000004
  6.1286502977919133 15.3367076515550416  7.5900000000000016
  5.8670365265492865 14.6551804769175682 11.3850000000000016
  8.4006031272708981 18.1423357404604033  6.3250000000000011
 18.5399300903374282 15.9871552635428351  3.7950000000000035
 13.2290139617476825 19.4361045242841399  5.0600000000000023
  6.4600699096625700  9.0128447364571667  6.3249999999999993
 17.1667246319238025 17.6829227794762325  7.5900000000000034
 14.6551804769175682  5.8670365265492856  5.0599999999999969
 12.4999999999999982  5.5256894729143298  3.7949999999999973
 16.5993968727291019 18.1423357404604033 11.3850000000000033
 16.5993968727291019  6.8576642595395949  8.8549999999999969
  9.6632923484449602  6.1286502977919115  3.7950000000000008
 17.6829227794762360  7.8332753680761975  6.3249999999999975
 18.1423357404604033  8.4006031272708963  2.5299999999999967
 11.7709860382523175  5.5638954757158574  7.5899999999999981
 13.2290139617476825 19.4361045242841399 12.6500000000000021
  6.8576642595395949  8.4006031272708981  2.5299999999999985
  8.4006031272708981  6.8576642595395967  6.3250000000000011
 16.5993968727291019  6.8576642595395949  1.2649999999999966
  5.6780948911586275 11.0499593060255226  5.0599999999999987
 19.4361045242841399 11.7709860382523175  3.7949999999999937
 19.3219051088413707 13.9500406939744792  7.5900000000000043
  5.8670365265492865 14.6551804769175682  3.7950000000000008
 19.1329634734507152 14.6551804769175682  6.3250000000000037
 10.3448195230824318 19.1329634734507152 10.1200000000000028
 18.5399300903374282 15.9871552635428351 11.3850000000000051
  7.3170772205237675 17.1667246319238025  3.7950000000000008
 18.1423357404604033 16.5993968727291019  7.5900000000000034
 10.3448195230824318 19.1329634734507152  2.5300000000000011
 15.3367076515550416 18.8713497022080858  8.8550000000000040
 10.3448195230824300  5.8670365265492865  7.5899999999999981
 13.9500406939744810  5.6780948911586284  8.8549999999999969
 19.1329634734507152 10.3448195230824300  6.3249999999999940
 12.4999999999999982  5.5256894729143298 11.3849999999999980
 13.9500406939744810  5.6780948911586284  1.2649999999999966
  5.5256894729143298 12.5000000000000000 12.6500000000000004
 11.0687871883570637 16.4322248824231281  6.3250000000000020
  8.8760419457975424 14.5922931581257025  6.3250000000000011
  8.5677751175768702 11.0687871883570637  7.5900000000000007
  6.1286502977919133 15.3367076515550416 15.1800000000000033
 10.4077068418742975  8.8760419457975441  5.0600000000000005
 13.9312128116429346  8.5677751175768684  6.3250000000000011
 16.1239580542024541 10.4077068418742975  6.3249999999999993
 14.5922931581257007 16.1239580542024576  5.0600000000000014
  8.4006031272708981 18.1423357404604033 13.9150000000000027
 14.5922931581257007 16.1239580542024576  7.5900000000000025
 11.0687871883570637 16.4322248824231281  8.8550000000000004
 11.0499593060255208 19.3219051088413707 13.9150000000000027
  8.8760419457975424 14.5922931581257025  8.8550000000000004
 10.4077068418742975  8.8760419457975441  7.5900000000000007
 14.6551804769175682 19.1329634734507152 12.6500000000000039
 13.9312128116429346  8.5677751175768684  8.8550000000000004
 16.1239580542024541 10.4077068418742975  8.8549999999999986
 16.4322248824231281 13.9312128116429363  7.5900000000000025
 16.4322248824231281 13.9312128116429363  5.0600000000000023
 16.1239580542024541 10.4077068418742975  3.7949999999999986
  6.4600699096625700  9.0128447364571667 13.9150000000000009
 16.4322248824231281 13.9312128116429363  0.0000000000000024
 14.5922931581257007 16.1239580542024576  0.0000000000000020
 11.0687871883570637 16.4322248824231281  1.2650000000000019
 17.6829227794762360  7.8332753680761975 13.9149999999999991
  8.8760419457975424 14.5922931581257025  1.2650000000000010
  8.5677751175768702 11.0687871883570637  2.5300000000000011
 10.4077068418742975  8.8760419457975441  0.0000000000000007
 14.6551804769175682  5.8670365265492856 12.6499999999999986
 13.9312128116429346  8.5677751175768684  1.2650000000000010
 16.1239580542024541 10.4077068418742975  1.2649999999999992
 16.4322248824231281 13.9312128116429363  2.5300000000000020
 11.7709860382523175  5.5638954757158574 15.1799999999999997
 14.5922931581257007 16.1239580542024576  2.5300000000000016
 11.0687871883570637 16.4322248824231281  3.7950000000000013
  8.8760419457975424 14.5922931581257025  3.7950000000000004
  8.4006031272708981  6.8576642595395967 13.9150000000000027
  8.5677751175768702 11.0687871883570637  5.0600000000000014
 10.4077068418742975  8.8760419457975441  2.5300000000000002
 13.9312128116429346  8.5677751175768684  3.7950000000000004
 16.4322248824231281 13.9312128116429363 10.1200000000000010
 17.1667246319238025 17.6829227794762325 15.1800000000000050
  8.5677751175768702 11.0687871883570637 10.1200000000000010
 11.0687871883570637 16.4322248824231281 11.3849999999999998
  8.5677751175768702 11.0687871883570637 15.1799999999999997
 15.9871552635428351  6.4600699096625718 12.6499999999999986
 14.5922931581257007 16.1239580542024576 10.1200000000000010
 10.4077068418742975  8.8760419457975441 12.6499999999999986
 13.9312128116429346  8.5677751175768684 13.9149999999999991
 16.1239580542024541 10.4077068418742975 13.9149999999999974
 19.3219051088413707 13.9500406939744792  0.0000000000000032
 18.1423357404604033 16.5993968727291019  0.0000000000000023
 15.3367076515550416 18.8713497022080858  1.2650000000000023
  9.6632923484449602  6.1286502977919115 11.3850000000000016
 12.5000000000000000 19.4743105270856702  1.2650000000000010
  9.0128447364571667 18.5399300903374282  2.5300000000000011
  6.8576642595395967 16.5993968727291019  0.0000000000000001
  6.8576642595395949  8.4006031272708981 10.1199999999999992
  5.5638954757158583 13.2290139617476861  1.2650000000000001
  5.8670365265492856 10.3448195230824318  1.2649999999999983
  7.8332753680761957  7.3170772205237675  2.5299999999999985
  5.6780948911586275 11.0499593060255226 12.6500000000000004
 10.3448195230824300  5.8670365265492865 -0.0000000000000034
  8.8760419457975424 14.5922931581257025 13.9149999999999991
 11.0687871883570637 16.4322248824231281 13.9149999999999991
  5.8670365265492856 10.3448195230824318  8.8549999999999986
 14.5922931581257007 16.1239580542024576 12.6500000000000004
 18.1423357404604033  8.4006031272708963 10.1199999999999974
 10.4077068418742975  8.8760419457975441 10.1199999999999992
 13.9312128116429346  8.5677751175768684 11.3849999999999998
  8.8760419457975424 14.5922931581257025 11.3849999999999998
 16.4322248824231281 13.9312128116429363 12.6500000000000004
 16.1239580542024541 10.4077068418742975 11.3849999999999980
 19.4361045242841399 11.7709860382523175 11.3849999999999945
  8.5677751175768702 11.0687871883570637 12.6500000000000004
 19.1329634734507152 14.6551804769175682 13.9150000000000063
 12.5000000000000000 19.4743105270856702 11.3850000000000016
 12.4999999999999982  5.5256894729143298 13.9149999999999991
  7.8332753680761957  7.3170772205237675 12.6500000000000004
  6.8576642595395967 16.5993968727291019 10.1200000000000010
  8.4006031272708981  6.8576642595395967  8.8550000000000004
 13.2290139617476825 19.4361045242841399 15.1800000000000033
  5.8670365265492856 10.3448195230824318 11.3849999999999998
 16.5993968727291019 18.1423357404604033 13.9150000000000045
 18.1423357404604033  8.4006031272708963 12.6499999999999986
 18.5399300903374282 15.9871552635428351 13.9150000000000063
 18.1423357404604033 16.5993968727291019 10.1200000000000045
 15.9871552635428351  6.4600699096625718 15.1799999999999997
 11.7709860382523175  5.5638954757158574 10.1199999999999974
 15.3367076515550416 18.8713497022080858 11.3850000000000033
 19.3219051088413707 13.9500406939744792 10.1200000000000045
  5.8670365265492865 14.6551804769175682 13.9150000000000027
  7.3170772205237675 17.1667246319238025 13.9150000000000027
 16.5993968727291019  6.8576642595395949 11.3849999999999980
 17.6829227794762360  7.8332753680761975  8.8549999999999969
 19.1329634734507152 10.3448195230824300  8.8549999999999933
 18.8713497022080894  9.6632923484449602 12.6499999999999986
  5.5638954757158583 13.2290139617476861 11.3850000000000016
 13.9500406939744810  5.6780948911586284 11.3849999999999980
  6.8576642595395949  8.4006031272708981 12.6500000000000004
 14.6551804769175682  5.8670365265492856  7.5899999999999981
 10.3448195230824318 19.1329634734507152 12.6500000000000039
 19.4743105270856702 12.5000000000000000 12.6500000000000057
 10.3448195230824300  5.8670365265492865 10.1199999999999974
  9.6632923484449602  6.1286502977919115 13.9150000000000027
  9.0128447364571667 18.5399300903374282 12.6500000000000021
  5.6780948911586275 11.0499593060255226 15.1800000000000015
 15.3367076515550416 18.8713497022080858  3.7950000000000026
  5.5256894729143298 12.5000000000000000  7.5899999999999999
 16.1239580542024576 14.5922931581257007  8.8550000000000022
 13.2266457881070298 16.6210130473931770 10.1200000000000010
 10.4077068418742993 16.1239580542024576  7.5900000000000016
  8.3789869526068230 13.2266457881070298  8.8550000000000004
  8.8760419457975424 10.4077068418743011  8.8549999999999986
 11.7733542118929684  8.3789869526068230 10.1199999999999992
 14.5922931581256989  8.8760419457975406  7.5899999999999999
 16.6210130473931770 11.7733542118929666  8.8549999999999986
 16.1239580542024576 14.5922931581257007 11.3849999999999998
 16.6210130473931770 11.7733542118929666  6.3249999999999993
 13.2266457881070298 16.6210130473931770 12.6500000000000004
  8.3789869526068230 13.2266457881070298 11.3849999999999998
  8.8760419457975424 10.4077068418743011 11.3849999999999980
 11.7733542118929684  8.3789869526068230 12.6499999999999986
 14.5922931581256989  8.8760419457975406 10.1199999999999992
 16.6210130473931770 11.7733542118929666 11.3849999999999980
 16.1239580542024576 14.5922931581257007 13.9150000000000009
 13.2266457881070298 16.6210130473931770 15.1799999999999997
 10.4077068418742993 16.1239580542024576 12.6500000000000004
  8.3789869526068230 13.2266457881070298 13.9149999999999991
 10.4077068418742993 16.1239580542024576 10.1199999999999992
  8.8760419457975424 10.4077068418743011 13.9149999999999974
 14.5922931581256989  8.8760419457975406  5.0599999999999996
  8.8760419457975424 10.4077068418743011  6.3250000000000002
 16.1239580542024576 14.5922931581257007  1.2650000000000021
 13.2266457881070298 16.6210130473931770  2.5300000000000016
 10.4077068418742993 16.1239580542024576  0.0000000000000016
  8.3789869526068230 13.2266457881070298  1.2650000000000010
  8.8760419457975424 10.4077068418743011  1.2650000000000001
 11.7733542118929684  8.3789869526068230  2.5300000000000002
 14.5922931581256989  8.8760419457975406 -0.0000000000000002
 16.6210130473931770 11.7733542118929666  1.2649999999999992
 16.1239580542024576 14.5922931581257007  3.7950000000000017
 11.7733542118929684  8.3789869526068230  7.5900000000000007
 13.2266457881070298 16.6210130473931770  5.0600000000000014
  8.3789869526068230 13.2266457881070298  3.7950000000000004
  8.8760419457975424 10.4077068418743011  3.7949999999999995
 11.7733542118929684  8.3789869526068230  5.0600000000000005
 14.5922931581256989  8.8760419457975406  2.5299999999999994
 16.6210130473931770 11.7733542118929666  3.7949999999999986
 16.1239580542024576 14.5922931581257007  6.3250000000000020
 13.2266457881070298 16.6210130473931770  7.5900000000000016
 10.4077068418742993 16.1239580542024576  5.0600000000000014
  8.3789869526068230 13.2266457881070298  6.3250000000000011
 10.4077068418742993 16.1239580542024576  2.5300000000000011
 11.7733542118929684  8.3789869526068230 15.1799999999999979
 14.5922931581256989  8.8760419457975406 12.6499999999999968
 16.6210130473931770 11.7733542118929666 13.9149999999999974
 19.4743105270856702 12.5000000000000000  5.0600000000000041
 18.5399300903374282 15.9871552635428351  6.3250000000000037
 16.5993968727291019 18.1423357404604033  6.3250000000000028
 13.2290139617476825 19.4361045242841399  7.5900000000000025
 10.3448195230824318 19.1329634734507152  5.0600000000000023
  7.3170772205237675 17.1667246319238025  6.3250000000000011
  5.8670365265492865 14.6551804769175682  6.3250000000000011
  5.6780948911586275 11.0499593060255226  7.5899999999999999
  6.8576642595395949  8.4006031272708981  5.0599999999999987
 18.8713497022080894  9.6632923484449602  5.0599999999999969
  9.6632923484449602  6.1286502977919115  6.3250000000000011
 15.9871552635428351  6.4600699096625718  7.5899999999999981
 18.1423357404604033  8.4006031272708963  5.0599999999999969
 19.4361045242841399 11.7709860382523175  6.3249999999999940
 19.1329634734507152 14.6551804769175682  8.8550000000000040
 17.1667246319238025 17.6829227794762325 10.1200000000000045
 14.6551804769175682 19.1329634734507152  7.5900000000000025
 11.0499593060255208 19.3219051088413707  8.8550000000000022
  8.4006031272708981 18.1423357404604033  8.8550000000000004
  6.1286502977919133 15.3367076515550416 10.1200000000000010
 12.4999999999999982  5.5256894729143298  6.3249999999999975
 16.5993968727291019  6.8576642595395949  3.7949999999999973
 13.9500406939744810  5.6780948911586284  3.7949999999999973
 10.3448195230824300  5.8670365265492865  2.5299999999999967
 19.1329634734507152 14.6551804769175682  1.2650000000000028
 17.1667246319238025 17.6829227794762325  2.5300000000000029
 14.6551804769175682 19.1329634734507152  0.0000000000000014
 11.0499593060255208 19.3219051088413707  1.2650000000000010
  8.4006031272708981 18.1423357404604033  1.2650000000000001
  6.1286502977919133 15.3367076515550416  2.5300000000000002
  5.5256894729143298 12.5000000000000000 -0.0000000000000017
  6.4600699096625700  9.0128447364571667  1.2649999999999983
  8.4006031272708981  6.8576642595395967  1.2650000000000001
 11.7709860382523175  5.5638954757158574  2.5299999999999967
 14.6551804769175682  5.8670365265492856 -0.0000000000000034
 17.6829227794762360  7.8332753680761975  1.2649999999999966
 19.1329634734507152 10.3448195230824300  1.2649999999999930
 19.3219051088413707 13.9500406939744792  2.5300000000000038
 18.1423357404604033 16.5993968727291019  2.5300000000000029
 12.5000000000000000 19.4743105270856702  3.7950000000000017
  9.0128447364571667 18.5399300903374282  5.0600000000000023
  6.8576642595395967 16.5993968727291019  2.5300000000000002
  5.5638954757158583 13.2290139617476861  3.7950000000000008
  5.8670365265492856 10.3448195230824318  3.7949999999999990
  7.8332753680761957  7.3170772205237675  5.0599999999999987
  6.4600699096625700  9.0128447364571667  8.8549999999999986
 19.4361045242841399 11.7709860382523175 13.9149999999999956
