 C 
 1.0000000000000000
    25.0000000000000000    0.0000000000000000    0.0000000000000000
     0.0000000000000000   25.0000000000000000    0.0000000000000000
     0.0000000000000000    0.0000000000000000   15.1799999999999997
 144
Cartesian
 16.6845863162514050 12.5000000000000000  0.0000000000000024
 14.5922931581256972  8.8760419457975406  7.5899999999999999
 15.7055790943160982  9.8101997642497558 10.1199999999999992
 16.1239580542024541 10.4077068418742975  8.8549999999999986
 16.6210130473931770 11.7733542118929666  8.8549999999999986
 16.6845863162514050 12.5000000000000000 10.1200000000000010
 16.4322248824231281 13.9312128116429363 10.1200000000000010
 13.9312128116429346  8.5677751175768684  8.8550000000000004
 16.1239580542024576 14.5922931581257007 11.3849999999999998
 14.5922931581257007 16.1239580542024576 10.1200000000000010
 13.2266457881070298 16.6210130473931770 12.6500000000000004
 12.5000000000000000 16.6845863162514050 11.3849999999999998
 11.0687871883570637 16.4322248824231281 11.3849999999999998
 10.4077068418742993 16.1239580542024576 10.1199999999999992
  9.2944209056839000 15.1898002357502406 12.6500000000000004
 15.1898002357502406 15.7055790943161000 11.3849999999999998
  8.8760419457975424 14.5922931581257025 11.3849999999999998
 12.5000000000000000  8.3154136837485986  8.8550000000000004
 10.4077068418742975  8.8760419457975441  7.5900000000000007
 16.1239580542024576 14.5922931581257007  8.8550000000000022
 15.1898002357502406 15.7055790943161000  8.8550000000000022
 14.5922931581257007 16.1239580542024576  7.5900000000000025
 13.2266457881070298 16.6210130473931770 10.1200000000000010
 12.5000000000000000 16.6845863162514050  8.8550000000000004
 11.0687871883570637 16.4322248824231281  8.8550000000000004
 11.7733542118929684  8.3789869526068230 10.1199999999999992
 10.4077068418742993 16.1239580542024576  7.5900000000000016
  8.8760419457975424 14.5922931581257025  8.8550000000000004
  8.3789869526068230 13.2266457881070298  8.8550000000000004
  8.3154136837485986 12.5000000000000000  7.5900000000000016
  8.5677751175768702 11.0687871883570637 10.1200000000000010
  8.8760419457975424 10.4077068418742993  8.8549999999999986
  9.8101997642497594  9.2944209056839000  8.8549999999999986
  9.2944209056839000 15.1898002357502406 10.1200000000000010
 16.4322248824231281 13.9312128116429363  7.5900000000000025
  8.3789869526068230 13.2266457881070298 11.3849999999999998
  8.5677751175768702 11.0687871883570637 12.6500000000000004
 10.4077068418742993 16.1239580542024576 12.6500000000000004
  9.2944209056839000 15.1898002357502406 15.1799999999999997
  8.8760419457975424 14.5922931581257025 13.9149999999999991
  8.3789869526068230 13.2266457881070298 13.9149999999999991
  8.3154136837485986 12.5000000000000000 12.6500000000000004
  8.5677751175768702 11.0687871883570637 15.1799999999999997
 11.0687871883570637 16.4322248824231281 13.9149999999999991
  8.8760419457975424 10.4077068418742993 13.9149999999999974
 10.4077068418742975  8.8760419457975441 12.6499999999999986
 11.7733542118929684  8.3789869526068230 15.1799999999999979
 12.5000000000000000  8.3154136837485986 13.9149999999999991
 13.9312128116429346  8.5677751175768684 13.9149999999999991
 14.5922931581256972  8.8760419457975406 12.6499999999999968
 15.7055790943160982  9.8101997642497558 15.1799999999999979
  9.8101997642497594  9.2944209056839000 13.9149999999999974
  8.3154136837485986 12.5000000000000000 10.1199999999999992
 12.5000000000000000 16.6845863162514050 13.9149999999999991
 14.5922931581257007 16.1239580542024576 12.6500000000000004
  8.8760419457975424 10.4077068418742993 11.3849999999999980
  9.8101997642497594  9.2944209056839000 11.3849999999999980
 10.4077068418742975  8.8760419457975441 10.1199999999999992
 11.7733542118929684  8.3789869526068230 12.6499999999999986
 12.5000000000000000  8.3154136837485986 11.3849999999999998
 13.9312128116429346  8.5677751175768684 11.3849999999999998
 13.2266457881070298 16.6210130473931770 15.1799999999999997
 14.5922931581256972  8.8760419457975406 10.1199999999999992
 16.1239580542024541 10.4077068418742975 11.3849999999999980
 16.6210130473931770 11.7733542118929666 11.3849999999999980
 16.6845863162514050 12.5000000000000000 12.6500000000000004
 16.4322248824231281 13.9312128116429363 12.6500000000000004
 16.1239580542024576 14.5922931581257007 13.9150000000000009
 15.1898002357502406 15.7055790943161000 13.9150000000000009
 15.7055790943160982  9.8101997642497558 12.6499999999999986
 16.6845863162514050 12.5000000000000000  7.5900000000000025
 16.6210130473931770 11.7733542118929666  6.3249999999999993
 16.1239580542024541 10.4077068418742975  6.3249999999999993
 13.9312128116429346  8.5677751175768684  1.2650000000000010
 14.5922931581256972  8.8760419457975406 -0.0000000000000002
 15.7055790943160982  9.8101997642497558  2.5299999999999994
 16.1239580542024541 10.4077068418742975  1.2649999999999992
 16.6210130473931770 11.7733542118929666  1.2649999999999992
 16.6845863162514050 12.5000000000000000  2.5300000000000020
 12.5000000000000000  8.3154136837485986  1.2650000000000010
 16.4322248824231281 13.9312128116429363  2.5300000000000020
 15.1898002357502406 15.7055790943161000  3.7950000000000017
 14.5922931581257007 16.1239580542024576  2.5300000000000016
 13.2266457881070298 16.6210130473931770  5.0600000000000014
 12.5000000000000000 16.6845863162514050  3.7950000000000013
 11.0687871883570637 16.4322248824231281  3.7950000000000013
 10.4077068418742993 16.1239580542024576  2.5300000000000011
 16.1239580542024576 14.5922931581257007  3.7950000000000017
  9.2944209056839000 15.1898002357502406  5.0600000000000014
 11.7733542118929684  8.3789869526068230  2.5300000000000002
  9.8101997642497594  9.2944209056839000  1.2650000000000001
 16.4322248824231281 13.9312128116429363  0.0000000000000024
 16.1239580542024576 14.5922931581257007  1.2650000000000021
 15.1898002357502406 15.7055790943161000  1.2650000000000021
 14.5922931581257007 16.1239580542024576  0.0000000000000020
 13.2266457881070298 16.6210130473931770  2.5300000000000016
 12.5000000000000000 16.6845863162514050  1.2650000000000019
 10.4077068418742975  8.8760419457975441  0.0000000000000007
 11.0687871883570637 16.4322248824231281  1.2650000000000019
  9.2944209056839000 15.1898002357502406  2.5300000000000011
  8.8760419457975424 14.5922931581257025  1.2650000000000010
  8.3789869526068230 13.2266457881070298  1.2650000000000010
  8.3154136837485986 12.5000000000000000  0.0000000000000016
  8.5677751175768702 11.0687871883570637  2.5300000000000011
  8.8760419457975424 10.4077068418742993  1.2650000000000001
 10.4077068418742993 16.1239580542024576  0.0000000000000016
  8.8760419457975424 14.5922931581257025  3.7950000000000004
  8.3789869526068230 13.2266457881070298  3.7950000000000004
  8.3154136837485986 12.5000000000000000  2.5300000000000011
 10.4077068418742993 16.1239580542024576  5.0600000000000014
  9.2944209056839000 15.1898002357502406  7.5900000000000007
  8.8760419457975424 14.5922931581257025  6.3250000000000011
  8.3789869526068230 13.2266457881070298  6.3250000000000011
  8.3154136837485986 12.5000000000000000  5.0600000000000014
  8.5677751175768702 11.0687871883570637  7.5900000000000007
 11.0687871883570637 16.4322248824231281  6.3250000000000020
  8.8760419457975424 10.4077068418742993  6.3250000000000002
 10.4077068418742975  8.8760419457975441  5.0600000000000005
 11.7733542118929684  8.3789869526068230  7.5900000000000007
 12.5000000000000000  8.3154136837485986  6.3250000000000011
 13.9312128116429346  8.5677751175768684  6.3250000000000011
 14.5922931581256972  8.8760419457975406  5.0599999999999996
 15.7055790943160982  9.8101997642497558  7.5899999999999990
  9.8101997642497594  9.2944209056839000  6.3250000000000002
 12.5000000000000000 16.6845863162514050  6.3250000000000020
 13.2266457881070298 16.6210130473931770  7.5900000000000016
 14.5922931581257007 16.1239580542024576  5.0600000000000014
  8.5677751175768702 11.0687871883570637  5.0600000000000014
  8.8760419457975424 10.4077068418742993  3.7949999999999995
  9.8101997642497594  9.2944209056839000  3.7949999999999995
 10.4077068418742975  8.8760419457975441  2.5300000000000002
 11.7733542118929684  8.3789869526068230  5.0600000000000005
 12.5000000000000000  8.3154136837485986  3.7950000000000004
 13.9312128116429346  8.5677751175768684  3.7950000000000004
 14.5922931581256972  8.8760419457975406  2.5299999999999994
 15.7055790943160982  9.8101997642497558  5.0599999999999996
 16.1239580542024541 10.4077068418742975  3.7949999999999986
 16.6210130473931770 11.7733542118929666  3.7949999999999986
 16.6845863162514050 12.5000000000000000  5.0600000000000023
 16.4322248824231281 13.9312128116429363  5.0600000000000023
 16.1239580542024576 14.5922931581257007  6.3250000000000020
 15.1898002357502406 15.7055790943161000  6.3250000000000020
 16.1239580542024541 10.4077068418742975 13.9149999999999974
 16.6210130473931770 11.7733542118929666 13.9149999999999974
