 B  C  N 
 1.0000000000000000
    25.0000000000000000    0.0000000000000000    0.0000000000000000
     0.0000000000000000   25.0000000000000000    0.0000000000000000
     0.0000000000000000    0.0000000000000000   15.1800000000000015
  80  80  80
Cartesian
 19.4743105270856702 12.5000000000000000  0.0000000000000032
  9.0128447364571667 18.5399300903374282 15.1800000000000033
 17.6829227794762360  7.8332753680761975 11.3849999999999980
 14.6551804769175682  5.8670365265492856  2.5299999999999967
 10.3448195230824318 19.1329634734507152  7.5900000000000016
 11.7709860382523175  5.5638954757158574  5.0599999999999969
  7.3170772205237675 17.1667246319238025  8.8550000000000004
  8.4006031272708981  6.8576642595395967  3.7950000000000008
  6.8576642595395967 16.5993968727291019 12.6500000000000021
  6.4600699096625700  9.0128447364571667  3.7949999999999990
  5.8670365265492865 14.6551804769175682  8.8550000000000004
  5.5256894729143298 12.5000000000000000  2.5299999999999985
 14.6551804769175682  5.8670365265492856 10.1199999999999974
  5.6780948911586275 11.0499593060255226 10.1199999999999992
  6.1286502977919133 15.3367076515550416  5.0600000000000005
  5.5638954757158583 13.2290139617476861 13.9150000000000027
 10.3448195230824300  5.8670365265492865  5.0599999999999969
  6.8576642595395949  8.4006031272708981  7.5899999999999999
 11.0499593060255208 19.3219051088413707  3.7950000000000017
  9.6632923484449602  6.1286502977919115  8.8550000000000004
 17.6829227794762360  7.8332753680761975  3.7949999999999973
 14.6551804769175682 19.1329634734507152  2.5300000000000020
 13.2290139617476825 19.4361045242841399 10.1200000000000028
 19.3219051088413707 13.9500406939744792  5.0600000000000041
 13.9500406939744810  5.6780948911586284  6.3249999999999975
  7.8332753680761957  7.3170772205237675  7.5899999999999999
 16.5993968727291019  6.8576642595395949  6.3249999999999975
  5.8670365265492856 10.3448195230824318  6.3249999999999993
 18.1423357404604033 16.5993968727291019 12.6500000000000057
  5.5638954757158583 13.2290139617476861  6.3250000000000011
 18.8713497022080894  9.6632923484449602  7.5899999999999981
  6.8576642595395967 16.5993968727291019  5.0600000000000005
 19.4743105270856702 12.5000000000000000  7.5900000000000043
  9.0128447364571667 18.5399300903374282  7.5900000000000016
 15.3367076515550416 18.8713497022080858 13.9150000000000045
 12.5000000000000000 19.4743105270856702  6.3250000000000020
  6.1286502977919133 15.3367076515550416 12.6500000000000021
 19.1329634734507152 10.3448195230824300 11.3849999999999945
 15.3367076515550416 18.8713497022080858  6.3250000000000028
 18.5399300903374282 15.9871552635428351  8.8550000000000040
 18.1423357404604033 16.5993968727291019  5.0600000000000032
 12.5000000000000000 19.4743105270856702 13.9150000000000027
 16.5993968727291019 18.1423357404604033  8.8550000000000040
 19.1329634734507152 10.3448195230824300  3.7949999999999937
  5.8670365265492856 10.3448195230824318 13.9150000000000009
  8.4006031272708981 18.1423357404604033  3.7950000000000008
 19.3219051088413707 13.9500406939744792 12.6500000000000057
  7.3170772205237675 17.1667246319238025  1.2650000000000001
 10.3448195230824300  5.8670365265492865 12.6499999999999986
 19.4361045242841399 11.7709860382523175  8.8549999999999933
  9.6632923484449602  6.1286502977919115  1.2650000000000001
 19.1329634734507152 14.6551804769175682 11.3850000000000051
  6.8576642595395949  8.4006031272708981 -0.0000000000000017
 13.2290139617476825 19.4361045242841399  2.5300000000000020
 12.4999999999999982  5.5256894729143298  1.2649999999999966
 17.1667246319238025 17.6829227794762325  5.0600000000000032
 11.0499593060255208 19.3219051088413707 11.3850000000000016
 16.5993968727291019  6.8576642595395949 13.9149999999999991
 13.9500406939744810  5.6780948911586284 13.9149999999999991
 17.1667246319238025 17.6829227794762325 12.6500000000000039
  5.8670365265492865 14.6551804769175682  1.2650000000000001
 10.3448195230824318 19.1329634734507152  0.0000000000000010
  6.4600699096625700  9.0128447364571667 11.3849999999999998
  5.6780948911586275 11.0499593060255226  2.5299999999999985
  8.4006031272708981  6.8576642595395967 11.3850000000000016
 14.6551804769175682 19.1329634734507152 10.1200000000000028
 18.5399300903374282 15.9871552635428351  1.2650000000000028
 15.9871552635428351  6.4600699096625718  2.5299999999999967
  8.4006031272708981 18.1423357404604033 11.3850000000000016
 18.1423357404604033  8.4006031272708963  7.5899999999999981
 11.7709860382523175  5.5638954757158574 12.6499999999999986
 12.4999999999999982  5.5256894729143298  8.8549999999999969
 18.1423357404604033  8.4006031272708963 -0.0000000000000034
 19.1329634734507152 14.6551804769175682  3.7950000000000035
  5.5256894729143298 12.5000000000000000 10.1199999999999992
  7.8332753680761957  7.3170772205237675 15.1800000000000015
 16.5993968727291019 18.1423357404604033  1.2650000000000023
 19.4361045242841399 11.7709860382523175  1.2649999999999930
 15.9871552635428351  6.4600699096625718 10.1199999999999974
 18.8713497022080894  9.6632923484449602 15.1799999999999997
 19.3219051088413707 13.9500406939744792  7.5900000000000043
 19.4361045242841399 11.7709860382523175 11.3849999999999945
 19.1329634734507152 10.3448195230824300 13.9149999999999956
 17.6829227794762360  7.8332753680761975  6.3249999999999975
 10.3448195230824318 19.1329634734507152 10.1200000000000028
  7.3170772205237675 17.1667246319238025 11.3850000000000016
 19.1329634734507152 10.3448195230824300  6.3249999999999940
 14.6551804769175682  5.8670365265492856  5.0599999999999969
  5.6780948911586275 11.0499593060255226 12.6500000000000004
 10.3448195230824300  5.8670365265492865  7.5899999999999981
 18.1423357404604033 16.5993968727291019  7.5900000000000034
 12.4999999999999982  5.5256894729143298 11.3849999999999980
 13.9500406939744810  5.6780948911586284  8.8549999999999969
  7.8332753680761957  7.3170772205237675 10.1199999999999992
  5.8670365265492856 10.3448195230824318  8.8549999999999986
 16.5993968727291019  6.8576642595395949  8.8549999999999969
  9.6632923484449602  6.1286502977919115 11.3850000000000016
  5.5638954757158583 13.2290139617476861  8.8550000000000004
 18.8713497022080894  9.6632923484449602 10.1199999999999974
 15.9871552635428351  6.4600699096625718 12.6499999999999986
  6.8576642595395967 16.5993968727291019  7.5900000000000016
  9.0128447364571667 18.5399300903374282 10.1200000000000028
 19.4743105270856702 12.5000000000000000 10.1200000000000045
 18.5399300903374282 15.9871552635428351 11.3850000000000051
 12.5000000000000000 19.4743105270856702  8.8550000000000022
 18.1423357404604033  8.4006031272708963 10.1199999999999974
 15.3367076515550416 18.8713497022080858  8.8550000000000040
 16.5993968727291019 18.1423357404604033 11.3850000000000033
 13.2290139617476825 19.4361045242841399 12.6500000000000021
  6.8576642595395949  8.4006031272708981 10.1199999999999992
 14.6551804769175682 19.1329634734507152 12.6500000000000039
 19.1329634734507152 14.6551804769175682 13.9150000000000063
  7.3170772205237675 17.1667246319238025  3.7950000000000008
 11.7709860382523175  5.5638954757158574  7.5899999999999981
 10.3448195230824318 19.1329634734507152  2.5300000000000011
 13.2290139617476825 19.4361045242841399  5.0600000000000023
 16.5993968727291019 18.1423357404604033  3.7950000000000026
  6.4600699096625700  9.0128447364571667 13.9150000000000009
 18.5399300903374282 15.9871552635428351  3.7950000000000035
 19.4743105270856702 12.5000000000000000  2.5300000000000038
 18.8713497022080894  9.6632923484449602  2.5299999999999967
  8.4006031272708981  6.8576642595395967 13.9150000000000027
 16.5993968727291019  6.8576642595395949  1.2649999999999966
 13.9500406939744810  5.6780948911586284  1.2649999999999966
 10.3448195230824300  5.8670365265492865 -0.0000000000000034
 11.7709860382523175  5.5638954757158574 15.1799999999999997
  7.8332753680761957  7.3170772205237675  2.5299999999999985
  5.8670365265492856 10.3448195230824318  1.2649999999999983
  5.5638954757158583 13.2290139617476861  1.2650000000000001
 14.6551804769175682  5.8670365265492856 12.6499999999999986
  6.8576642595395967 16.5993968727291019  0.0000000000000001
  9.0128447364571667 18.5399300903374282  2.5300000000000011
 12.5000000000000000 19.4743105270856702  1.2650000000000010
 17.6829227794762360  7.8332753680761975 13.9149999999999991
 15.3367076515550416 18.8713497022080858  1.2650000000000023
 18.1423357404604033 16.5993968727291019  0.0000000000000023
 19.3219051088413707 13.9500406939744792  0.0000000000000032
  5.8670365265492865 14.6551804769175682  3.7950000000000008
  5.6780948911586275 11.0499593060255226  5.0599999999999987
  5.5256894729143298 12.5000000000000000 12.6500000000000004
 17.1667246319238025 17.6829227794762325  7.5900000000000034
  8.4006031272708981  6.8576642595395967  6.3250000000000011
  6.4600699096625700  9.0128447364571667  6.3249999999999993
  5.5256894729143298 12.5000000000000000  5.0599999999999987
 17.1667246319238025 17.6829227794762325 15.1800000000000050
  6.1286502977919133 15.3367076515550416  7.5900000000000016
  8.4006031272708981 18.1423357404604033  6.3250000000000011
 11.0499593060255208 19.3219051088413707  6.3250000000000020
 14.6551804769175682 19.1329634734507152  5.0600000000000023
  6.1286502977919133 15.3367076515550416 15.1800000000000033
 19.1329634734507152 14.6551804769175682  6.3250000000000037
 11.0499593060255208 19.3219051088413707 13.9150000000000027
 19.4361045242841399 11.7709860382523175  3.7949999999999937
  5.8670365265492865 14.6551804769175682 11.3850000000000016
  6.8576642595395949  8.4006031272708981  2.5299999999999985
 18.1423357404604033  8.4006031272708963  2.5299999999999967
 15.9871552635428351  6.4600699096625718  5.0599999999999969
  9.6632923484449602  6.1286502977919115  3.7950000000000008
  8.4006031272708981 18.1423357404604033 13.9150000000000027
 12.4999999999999982  5.5256894729143298  3.7949999999999973
 10.3448195230824300  5.8670365265492865 10.1199999999999974
 19.4743105270856702 12.5000000000000000 12.6500000000000057
 18.1423357404604033  8.4006031272708963 12.6499999999999986
 18.5399300903374282 15.9871552635428351 13.9150000000000063
 13.9500406939744810  5.6780948911586284 11.3849999999999980
  5.8670365265492856 10.3448195230824318 11.3849999999999998
  7.3170772205237675 17.1667246319238025 13.9150000000000027
 15.9871552635428351  6.4600699096625718 15.1799999999999997
 16.5993968727291019 18.1423357404604033 13.9150000000000045
 10.3448195230824318 19.1329634734507152 12.6500000000000039
  5.6780948911586275 11.0499593060255226 15.1800000000000015
 12.4999999999999982  5.5256894729143298 13.9149999999999991
  7.8332753680761957  7.3170772205237675 12.6500000000000004
 13.2290139617476825 19.4361045242841399 15.1800000000000033
 18.8713497022080894  9.6632923484449602 12.6499999999999986
  9.6632923484449602  6.1286502977919115 13.9150000000000027
  6.8576642595395949  8.4006031272708981 12.6500000000000004
 16.5993968727291019  6.8576642595395949 11.3849999999999980
  5.8670365265492865 14.6551804769175682 13.9150000000000027
 19.4361045242841399 11.7709860382523175  6.3249999999999940
  6.8576642595395967 16.5993968727291019 10.1200000000000010
 18.8713497022080894  9.6632923484449602  5.0599999999999969
 16.5993968727291019  6.8576642595395949  3.7949999999999973
 13.9500406939744810  5.6780948911586284  3.7949999999999973
 10.3448195230824300  5.8670365265492865  2.5299999999999967
  7.8332753680761957  7.3170772205237675  5.0599999999999987
  5.8670365265492856 10.3448195230824318  3.7949999999999990
  5.5638954757158583 13.2290139617476861  3.7950000000000008
  6.8576642595395967 16.5993968727291019  2.5300000000000002
  9.0128447364571667 18.5399300903374282  5.0600000000000023
 12.5000000000000000 19.4743105270856702  3.7950000000000017
 15.3367076515550416 18.8713497022080858  3.7950000000000026
 18.1423357404604033 16.5993968727291019  2.5300000000000029
 19.4743105270856702 12.5000000000000000  5.0600000000000041
 19.3219051088413707 13.9500406939744792  2.5300000000000038
 17.6829227794762360  7.8332753680761975  1.2649999999999966
 14.6551804769175682  5.8670365265492856 -0.0000000000000034
 11.7709860382523175  5.5638954757158574  2.5299999999999967
  8.4006031272708981  6.8576642595395967  1.2650000000000001
  6.4600699096625700  9.0128447364571667  1.2649999999999983
  5.5256894729143298 12.5000000000000000 -0.0000000000000017
  6.1286502977919133 15.3367076515550416  2.5300000000000002
  8.4006031272708981 18.1423357404604033  1.2650000000000001
 11.0499593060255208 19.3219051088413707  1.2650000000000010
 14.6551804769175682 19.1329634734507152  0.0000000000000014
 17.1667246319238025 17.6829227794762325  2.5300000000000029
 19.1329634734507152 14.6551804769175682  1.2650000000000028
 19.1329634734507152 10.3448195230824300  1.2649999999999930
 18.5399300903374282 15.9871552635428351  6.3250000000000037
 16.5993968727291019 18.1423357404604033  6.3250000000000028
 13.2290139617476825 19.4361045242841399  7.5900000000000025
  9.0128447364571667 18.5399300903374282 12.6500000000000021
 12.5000000000000000 19.4743105270856702 11.3850000000000016
 15.3367076515550416 18.8713497022080858 11.3850000000000033
 18.1423357404604033 16.5993968727291019 10.1200000000000045
 19.3219051088413707 13.9500406939744792 10.1200000000000045
 19.1329634734507152 10.3448195230824300  8.8549999999999933
 17.6829227794762360  7.8332753680761975  8.8549999999999969
 14.6551804769175682  5.8670365265492856  7.5899999999999981
 11.7709860382523175  5.5638954757158574 10.1199999999999974
  8.4006031272708981  6.8576642595395967  8.8550000000000004
  6.4600699096625700  9.0128447364571667  8.8549999999999986
  5.5256894729143298 12.5000000000000000  7.5899999999999999
  6.1286502977919133 15.3367076515550416 10.1200000000000010
  8.4006031272708981 18.1423357404604033  8.8550000000000004
 11.0499593060255208 19.3219051088413707  8.8550000000000022
 14.6551804769175682 19.1329634734507152  7.5900000000000025
 17.1667246319238025 17.6829227794762325 10.1200000000000045
 19.1329634734507152 14.6551804769175682  8.8550000000000040
 18.1423357404604033  8.4006031272708963  5.0599999999999969
 15.9871552635428351  6.4600699096625718  7.5899999999999981
 12.4999999999999982  5.5256894729143298  6.3249999999999975
  9.6632923484449602  6.1286502977919115  6.3250000000000011
  6.8576642595395949  8.4006031272708981  5.0599999999999987
  5.6780948911586275 11.0499593060255226  7.5899999999999999
  5.8670365265492865 14.6551804769175682  6.3250000000000011
  7.3170772205237675 17.1667246319238025  6.3250000000000011
 10.3448195230824318 19.1329634734507152  5.0600000000000023
  5.5638954757158583 13.2290139617476861 11.3850000000000016
 19.4361045242841399 11.7709860382523175 13.9149999999999956
