 C 
 1.0000000000000000
    25.0000000000000000    0.0000000000000000    0.0000000000000000
     0.0000000000000000   25.0000000000000000    0.0000000000000000
     0.0000000000000000    0.0000000000000000   15.1799999999999962
 264
Cartesian
 20.1717415797942365 12.5000000000000000  0.0000000000000021
 15.0091808936008793  5.2501979261270835  8.8550000000000004
 15.6869566281173309  5.5215383989275439  7.5899999999999999
 16.9500467118043048  6.2507837987549619  7.5899999999999999
 17.5239223215826172  6.7020845665146433  8.8549999999999969
 18.5303962108641862  7.7576440024879352  8.8549999999999969
 18.9538797069697686  8.3523433609919486  7.5899999999999999
 19.6221988730670382  9.6487016852622354  7.5899999999999999
 19.8609821411987539 10.3386206292978606  8.8550000000000004
 20.1370033399216446 11.7707546001725838  8.8550000000000004
 20.1717415797942365 12.5000000000000000 10.1199999999999992
 20.0331032151834947 13.9518866403875599 10.1199999999999992
 19.8609821411987539 14.6613793707021394 11.3849999999999998
 19.3189158690410423 16.0153954597006631 11.3849999999999998
 18.9538797069697686 16.6476566390080549 10.1199999999999992
 18.0523005128430540 17.7941078457306254 10.1199999999999992
 17.5239223215826172 18.2979154334853611 11.3849999999999998
 16.3358707898971218 19.1439230993711718 11.3849999999999998
 15.6869566281173345 19.4784616010724569 10.1199999999999992
 14.3086816283557017 19.9554872164327612 10.1199999999999992
 13.5918026622028538 20.0936543122498357 11.3849999999999980
 12.1349638379287263 20.1630520987087145 11.3849999999999980
 11.4081973377971480 20.0936543122498357 10.1199999999999992
  9.9908191063991225 19.7498020738729174 10.1199999999999992
  9.3130433718826655 19.4784616010724569 11.3849999999999980
  8.0499532881956952 18.7492162012450372 11.3849999999999980
  7.4760776784173864 18.2979154334853611 10.1199999999999992
  6.4696037891358191 17.2423559975120675 10.1199999999999992
  6.0461202930302331 16.6476566390080585 11.3849999999999998
  5.3778011269329671 15.3512983147377682 11.3849999999999998
 13.5918026622028503  4.9063456877501652  8.8550000000000004
  5.1390178588012478 14.6613793707021394 10.1199999999999992
 12.8650361620712737  4.8369479012912864  7.5899999999999999
 10.6913183716443019  5.0445127835672388  8.8550000000000004
 19.8609821411987539 14.6613793707021394  8.8549999999999986
 19.3189158690410423 16.0153954597006631  8.8549999999999986
 18.9538797069697686 16.6476566390080549  7.5899999999999999
 18.0523005128430540 17.7941078457306254  7.5899999999999999
 17.5239223215826172 18.2979154334853611  8.8550000000000004
 16.3358707898971218 19.1439230993711718  8.8550000000000004
 15.6869566281173345 19.4784616010724569  7.5899999999999999
 14.3086816283557017 19.9554872164327612  7.5899999999999999
 13.5918026622028538 20.0936543122498357  8.8549999999999986
 12.1349638379287263 20.1630520987087145  8.8549999999999986
 11.4081973377971480 20.0936543122498357  7.5899999999999999
  9.9908191063991225 19.7498020738729174  7.5899999999999999
  9.3130433718826655 19.4784616010724569  8.8549999999999986
  8.0499532881956952 18.7492162012450372  8.8549999999999986
  7.4760776784173864 18.2979154334853611  7.5899999999999999
  6.4696037891358191 17.2423559975120675  7.5899999999999999
  6.0461202930302331 16.6476566390080585  8.8550000000000004
  5.3778011269329671 15.3512983147377682  8.8550000000000004
  5.1390178588012478 14.6613793707021394  7.5899999999999999
  4.8629966600783590 13.2292453998274198  7.5899999999999999
  4.8282584202057652 12.5000000000000036  8.8550000000000004
  4.9668967848165071 11.0481133596124437  8.8550000000000004
  5.1390178588012461 10.3386206292978642  7.5899999999999999
  5.6810841309589595  8.9846045402993404  7.5899999999999999
  6.0461202930302331  8.3523433609919486  8.8550000000000004
  6.9476994871569477  7.2058921542693772  8.8550000000000004
  7.4760776784173846  6.7020845665146433  7.5899999999999981
  8.6641292101028782  5.8560769006288327 10.1199999999999974
  9.3130433718826655  5.5215383989275457  8.8550000000000004
 11.4081973377971462  4.9063456877501661  7.5899999999999999
 20.0331032151834947 13.9518866403875599  7.5899999999999999
  4.8629966600783590 13.2292453998274198 10.1199999999999992
  4.9668967848165071 11.0481133596124437 11.3849999999999998
  9.9908191063991225 19.7498020738729174 12.6499999999999986
  9.3130433718826655 19.4784616010724569 13.9149999999999974
  8.0499532881956952 18.7492162012450372 13.9149999999999974
  7.4760776784173864 18.2979154334853611 12.6499999999999986
  6.4696037891358191 17.2423559975120675 12.6499999999999986
  6.0461202930302331 16.6476566390080585 13.9149999999999991
  5.3778011269329671 15.3512983147377682 13.9149999999999991
  5.1390178588012478 14.6613793707021394 12.6499999999999986
  4.8629966600783590 13.2292453998274198 12.6499999999999986
  4.8282584202057652 12.5000000000000036 13.9149999999999991
  4.9668967848165071 11.0481133596124437 13.9149999999999991
  5.1390178588012461 10.3386206292978642 12.6499999999999986
  5.6810841309589595  8.9846045402993404 12.6499999999999986
  6.0461202930302331  8.3523433609919486 13.9149999999999991
  6.9476994871569477  7.2058921542693772 13.9149999999999991
  7.4760776784173846  6.7020845665146433 12.6499999999999968
  8.6641292101028782  5.8560769006288327 15.1799999999999962
  9.3130433718826655  5.5215383989275457 13.9149999999999991
 10.6913183716443019  5.0445127835672388 13.9149999999999991
 11.4081973377971462  4.9063456877501661 12.6499999999999986
 12.8650361620712737  4.8369479012912864 12.6499999999999986
 13.5918026622028503  4.9063456877501652 13.9149999999999991
 15.0091808936008793  5.2501979261270835 13.9149999999999991
 15.6869566281173309  5.5215383989275439 12.6499999999999986
 16.9500467118043048  6.2507837987549619 12.6499999999999986
 17.5239223215826172  6.7020845665146433 13.9149999999999956
 18.5303962108641862  7.7576440024879352 13.9149999999999956
 18.9538797069697686  8.3523433609919486 12.6499999999999986
 19.6221988730670382  9.6487016852622354 12.6499999999999986
 11.4081973377971480 20.0936543122498357 12.6499999999999986
  4.8282584202057652 12.5000000000000036 11.3849999999999998
 12.1349638379287263 20.1630520987087145 13.9149999999999974
 14.3086816283557017 19.9554872164327612 12.6499999999999986
  5.1390178588012461 10.3386206292978642 10.1199999999999992
  5.6810841309589595  8.9846045402993404 10.1199999999999992
  6.0461202930302331  8.3523433609919486 11.3849999999999998
  6.9476994871569477  7.2058921542693772 11.3849999999999998
  7.4760776784173846  6.7020845665146433 10.1199999999999974
  8.6641292101028782  5.8560769006288327 12.6499999999999968
  9.3130433718826655  5.5215383989275457 11.3849999999999998
 10.6913183716443019  5.0445127835672388 11.3849999999999998
 11.4081973377971462  4.9063456877501661 10.1199999999999992
 12.8650361620712737  4.8369479012912864 10.1199999999999992
 13.5918026622028503  4.9063456877501652 11.3849999999999998
 15.0091808936008793  5.2501979261270835 11.3849999999999998
 15.6869566281173309  5.5215383989275439 10.1199999999999992
 16.9500467118043048  6.2507837987549619 10.1199999999999992
 17.5239223215826172  6.7020845665146433 11.3849999999999962
 18.5303962108641862  7.7576440024879352 11.3849999999999962
 18.9538797069697686  8.3523433609919486 10.1199999999999992
 19.6221988730670382  9.6487016852622354 10.1199999999999992
 19.8609821411987539 10.3386206292978606 11.3849999999999998
 20.1370033399216446 11.7707546001725838 11.3849999999999998
 20.1717415797942365 12.5000000000000000 12.6499999999999986
 20.0331032151834947 13.9518866403875599 12.6499999999999986
 19.8609821411987539 14.6613793707021394 13.9149999999999974
 19.3189158690410423 16.0153954597006631 13.9149999999999974
 18.9538797069697686 16.6476566390080549 12.6499999999999986
 18.0523005128430540 17.7941078457306254 12.6499999999999986
 17.5239223215826172 18.2979154334853611 13.9149999999999991
 16.3358707898971218 19.1439230993711718 13.9149999999999991
 15.6869566281173345 19.4784616010724569 12.6499999999999986
 13.5918026622028538 20.0936543122498357 13.9149999999999974
 20.1717415797942365 12.5000000000000000  7.5899999999999999
 20.1370033399216446 11.7707546001725838  6.3250000000000011
 19.8609821411987539 10.3386206292978606  6.3250000000000011
 13.5918026622028503  4.9063456877501652  1.2650000000000023
 15.0091808936008793  5.2501979261270835  1.2650000000000023
 15.6869566281173309  5.5215383989275439  0.0000000000000021
 16.9500467118043048  6.2507837987549619  0.0000000000000021
 17.5239223215826172  6.7020845665146433  1.2649999999999988
 18.5303962108641862  7.7576440024879352  1.2649999999999988
 18.9538797069697686  8.3523433609919486  0.0000000000000021
 19.6221988730670382  9.6487016852622354  0.0000000000000021
 19.8609821411987539 10.3386206292978606  1.2650000000000023
 20.1370033399216446 11.7707546001725838  1.2650000000000023
 20.1717415797942365 12.5000000000000000  2.5300000000000011
 20.0331032151834947 13.9518866403875599  2.5300000000000011
 19.8609821411987539 14.6613793707021394  3.7950000000000008
 19.3189158690410423 16.0153954597006631  3.7950000000000008
 18.9538797069697686 16.6476566390080549  2.5300000000000011
 18.0523005128430540 17.7941078457306254  2.5300000000000011
 17.5239223215826172 18.2979154334853611  3.7950000000000008
 16.3358707898971218 19.1439230993711718  3.7950000000000008
 15.6869566281173345 19.4784616010724569  2.5300000000000011
 14.3086816283557017 19.9554872164327612  2.5300000000000011
 13.5918026622028538 20.0936543122498357  3.7950000000000008
 12.1349638379287263 20.1630520987087145  3.7950000000000008
 11.4081973377971480 20.0936543122498357  2.5300000000000011
  9.9908191063991225 19.7498020738729174  2.5300000000000011
  9.3130433718826655 19.4784616010724569  3.7949999999999999
  8.0499532881956952 18.7492162012450372  3.7949999999999999
  7.4760776784173864 18.2979154334853611  2.5300000000000011
  6.4696037891358191 17.2423559975120675  2.5300000000000011
  6.0461202930302331 16.6476566390080585  3.7950000000000017
 12.8650361620712737  4.8369479012912864  0.0000000000000021
  5.3778011269329671 15.3512983147377682  3.7950000000000017
 11.4081973377971462  4.9063456877501661  0.0000000000000021
  9.3130433718826655  5.5215383989275457  1.2650000000000023
 20.0331032151834947 13.9518866403875599  0.0000000000000021
 19.8609821411987539 14.6613793707021394  1.2650000000000019
 19.3189158690410423 16.0153954597006631  1.2650000000000019
 18.9538797069697686 16.6476566390080549  0.0000000000000021
 18.0523005128430540 17.7941078457306254  0.0000000000000021
 17.5239223215826172 18.2979154334853611  1.2650000000000019
 16.3358707898971218 19.1439230993711718  1.2650000000000019
 15.6869566281173345 19.4784616010724569  0.0000000000000021
 14.3086816283557017 19.9554872164327612  0.0000000000000021
 13.5918026622028538 20.0936543122498357  1.2650000000000015
 12.1349638379287263 20.1630520987087145  1.2650000000000015
 11.4081973377971480 20.0936543122498357  0.0000000000000021
  9.9908191063991225 19.7498020738729174  0.0000000000000021
  9.3130433718826655 19.4784616010724569  1.2650000000000006
  8.0499532881956952 18.7492162012450372  1.2650000000000006
  7.4760776784173864 18.2979154334853611  0.0000000000000021
  6.4696037891358191 17.2423559975120675  0.0000000000000021
  6.0461202930302331 16.6476566390080585  1.2650000000000023
  5.3778011269329671 15.3512983147377682  1.2650000000000023
  5.1390178588012478 14.6613793707021394  0.0000000000000021
  4.8629966600783590 13.2292453998274198  0.0000000000000021
  4.8282584202057652 12.5000000000000036  1.2650000000000023
  4.9668967848165071 11.0481133596124437  1.2650000000000023
  5.1390178588012461 10.3386206292978642  0.0000000000000021
  5.6810841309589595  8.9846045402993404  0.0000000000000021
  6.0461202930302331  8.3523433609919486  1.2650000000000023
  6.9476994871569477  7.2058921542693772  1.2650000000000023
  7.4760776784173846  6.7020845665146433 -0.0000000000000001
  8.6641292101028782  5.8560769006288327  2.5299999999999994
 10.6913183716443019  5.0445127835672388  1.2650000000000023
  5.1390178588012478 14.6613793707021394  2.5300000000000011
  4.8629966600783590 13.2292453998274198  2.5300000000000011
  4.8282584202057652 12.5000000000000036  3.7950000000000017
  9.9908191063991225 19.7498020738729174  5.0600000000000005
  9.3130433718826655 19.4784616010724569  6.3249999999999993
  8.0499532881956952 18.7492162012450372  6.3249999999999993
  7.4760776784173864 18.2979154334853611  5.0600000000000005
  6.4696037891358191 17.2423559975120675  5.0600000000000005
  6.0461202930302331 16.6476566390080585  6.3250000000000011
  5.3778011269329671 15.3512983147377682  6.3250000000000011
  5.1390178588012478 14.6613793707021394  5.0600000000000005
  4.8629966600783590 13.2292453998274198  5.0600000000000005
  4.8282584202057652 12.5000000000000036  6.3250000000000011
  4.9668967848165071 11.0481133596124437  6.3250000000000011
  5.1390178588012461 10.3386206292978642  5.0600000000000005
  5.6810841309589595  8.9846045402993404  5.0600000000000005
  6.0461202930302331  8.3523433609919486  6.3250000000000011
  6.9476994871569477  7.2058921542693772  6.3250000000000011
  7.4760776784173846  6.7020845665146433  5.0599999999999987
  8.6641292101028782  5.8560769006288327  7.5899999999999981
  9.3130433718826655  5.5215383989275457  6.3250000000000011
 10.6913183716443019  5.0445127835672388  6.3250000000000011
 11.4081973377971462  4.9063456877501661  5.0600000000000005
 12.8650361620712737  4.8369479012912864  5.0600000000000005
 13.5918026622028503  4.9063456877501652  6.3250000000000011
 15.0091808936008793  5.2501979261270835  6.3250000000000011
 15.6869566281173309  5.5215383989275439  5.0600000000000005
 16.9500467118043048  6.2507837987549619  5.0600000000000005
 17.5239223215826172  6.7020845665146433  6.3249999999999975
 18.5303962108641862  7.7576440024879352  6.3249999999999975
 18.9538797069697686  8.3523433609919486  5.0600000000000005
 19.6221988730670382  9.6487016852622354  5.0600000000000005
 11.4081973377971480 20.0936543122498357  5.0600000000000005
 12.1349638379287263 20.1630520987087145  6.3250000000000002
 13.5918026622028538 20.0936543122498357  6.3250000000000002
 14.3086816283557017 19.9554872164327612  5.0600000000000005
  4.9668967848165071 11.0481133596124437  3.7950000000000017
  5.1390178588012461 10.3386206292978642  2.5300000000000011
  5.6810841309589595  8.9846045402993404  2.5300000000000011
  6.0461202930302331  8.3523433609919486  3.7950000000000017
  6.9476994871569477  7.2058921542693772  3.7950000000000017
  7.4760776784173846  6.7020845665146433  2.5299999999999994
  8.6641292101028782  5.8560769006288327  5.0599999999999987
  9.3130433718826655  5.5215383989275457  3.7950000000000017
 10.6913183716443019  5.0445127835672388  3.7950000000000017
 11.4081973377971462  4.9063456877501661  2.5300000000000011
 12.8650361620712737  4.8369479012912864  2.5300000000000011
 13.5918026622028503  4.9063456877501652  3.7950000000000017
 15.0091808936008793  5.2501979261270835  3.7950000000000017
 15.6869566281173309  5.5215383989275439  2.5300000000000011
 19.8609821411987539 10.3386206292978606 13.9149999999999991
 16.9500467118043048  6.2507837987549619  2.5300000000000011
 18.5303962108641862  7.7576440024879352  3.7949999999999982
 18.9538797069697686  8.3523433609919486  2.5300000000000011
 19.6221988730670382  9.6487016852622354  2.5300000000000011
 19.8609821411987539 10.3386206292978606  3.7950000000000017
 20.1370033399216446 11.7707546001725838  3.7950000000000017
 20.1717415797942365 12.5000000000000000  5.0600000000000005
 20.0331032151834947 13.9518866403875599  5.0600000000000005
 19.8609821411987539 14.6613793707021394  6.3250000000000002
 19.3189158690410423 16.0153954597006631  6.3250000000000002
 18.9538797069697686 16.6476566390080549  5.0600000000000005
 18.0523005128430540 17.7941078457306254  5.0600000000000005
 17.5239223215826172 18.2979154334853611  6.3250000000000002
 16.3358707898971218 19.1439230993711718  6.3250000000000002
 15.6869566281173345 19.4784616010724569  5.0600000000000005
 17.5239223215826172  6.7020845665146433  3.7949999999999982
 20.1370033399216446 11.7707546001725838 13.9149999999999991
